Book Id,Title,Author,Author l-f,Additional Authors,ISBN,ISBN13,My Rating,Average Rating,Publisher,Binding,Number of Pages,Year Published,Original Publication Year,Date Read,Date Added,Bookshelves,Bookshelves with positions,Exclusive Shelf,My Review,Spoiler,Private Notes,Read Count,Owned Copies
61918819,The Wisdom of the Bullfrog: Leadership Made Simple (But Not Easy),William H. McRaven,"McRaven, William H.",,"=""1538707942""","=""9781538707944""",2,4.40,Grand Central Publishing,Hardcover,224,2023,,2025/05/11,2024/05/30,,,read,,,,1,0
1609227,That Which Is Seen and That Which Is Not Seen: The Unintended Consequences of Government Spending,Frédéric Bastiat,"Bastiat, Frédéric",,"=""160096706X""","=""9781600967061""",3,4.42,Classic Books Library,Paperback,55,2007,1850,2025/05/10,2025/02/09,nonfiction,nonfiction (#450),read,,,,1,0
55575967,"Chainsaw Man, Vol. 1: Dog and Chainsaw",Tatsuki Fujimoto,"Fujimoto, Tatsuki",,"=""""","=""""",3,4.37,VIZ Media: SHONEN JUMP,Kindle Edition,192,2020,2019,2025/05/09,2025/05/09,,,read,,,,1,0
1609224,The Law,Frédéric Bastiat,"Bastiat, Frédéric",,"=""1933550147""","=""9781933550145""",5,4.34,Ludwig von Mises Institute,Paperback,61,2011,1849,,2024/05/30,,,read,,,,2,0
31862,Discourse on Method and Meditations on First Philosophy,René Descartes,"Descartes, René",Donald A. Cress,"=""0872204200""","=""9780872204201""",2,3.77,Hackett Publishing Company,Paperback,103,1999,1637,,2024/05/18,philosophy-religion,philosophy-religion (#88),read,,,,1,0
25986929,"Goodnight Punpun Omnibus, Vol. 1",Inio Asano,"Asano, Inio",,"=""1421586207""","=""9781421586205""",3,4.27,VIZ Media LLC,Paperback,426,2016,2006,2023/11/08,2025/05/04,,,read,,,,1,0
44525305,The Ride of a Lifetime: Lessons Learned from 15 Years as CEO of the Walt Disney Company,Robert Iger,"Iger, Robert",Joel Lovell,"=""""","=""""",3,4.40,Random House,Hardcover,272,2019,2019,2025/05/04,2024/06/07,nonfiction,nonfiction (#384),read,,,,1,0
197169,Only Yesterday: An Informal History of the 1920's,Frederick Lewis Allen,"Allen, Frederick Lewis",,"=""0060956658""","=""9780060956653""",0,3.98,Harper Perennial Modern Classics,Paperback,352,2010,1931,,2025/05/04,"to-read, nonfiction","to-read (#649), nonfiction (#461)",to-read,,,,0,0
6601224,The Great Depression: A Diary,Benjamin Roth,"Roth, Benjamin","James Ledbetter, Daniel B. Roth","=""158648799X""","=""9781586487997""",0,3.95,PublicAffairs,Hardcover,288,2009,2009,,2025/05/04,"to-read, nonfiction","to-read (#648), nonfiction (#460)",to-read,,,,0,0
41721428,Can't Hurt Me: Master Your Mind and Defy the Odds,David Goggins,"Goggins, David",,"=""1544512260""","=""""",2,4.30,Lioncrest Publishing,Kindle Edition,366,2018,2018,2024/05/12,2024/05/12,,,read,,,,1,0
25744928,Deep Work: Rules for Focused Success in a Distracted World,Cal Newport,"Newport, Cal",,"=""1455586692""","=""9781455586691""",1,4.17,Grand Central Publishing,Hardcover,296,2016,2016,2024/07/15,2024/05/12,,,read,,,,1,0
18176747,The Hard Thing About Hard Things: Building a Business When There Are No Easy Answers―Straight Talk on the Challenges of Entrepreneurship,Ben Horowitz,"Horowitz, Ben",,"=""0062273205""","=""9780062273208""",3,4.21,Harper Business,Hardcover,304,2014,2014,2025/02/12,2024/05/12,,,read,,,,1,0
49552,The Stranger,Albert Camus,"Camus, Albert",Matthew  Ward,"=""""","=""""",2,4.03,Vintage International,Paperback,123,1989,1942,2024/12/16,2024/05/12,,,read,,,,1,0
55030,Cosmos,Carl Sagan,"Sagan, Carl",,"=""0375508325""","=""9780375508325""",2,4.40,Random House,Mass Market Paperback,384,2002,1980,2024/07/23,2024/05/14,,,read,,,,1,0
1202,Freakonomics: A Rogue Economist Explores the Hidden Side of Everything,Steven D. Levitt,"Levitt, Steven D.",Stephen J. Dubner,"=""0061234001""","=""9780061234002""",3,4.01,William Morrow,Hardcover,268,2006,2005,2023/08/10,2024/05/14,,,read,,,,1,0
6900,"Tuesdays with Morrie: An Old Man, a Young Man, and Life's Greatest Lesson",Mitch Albom,"Albom, Mitch",,"=""""","=""""",2,4.19,Warner,Paperback,210,2000,1997,2024/06/07,2024/05/14,,,read,,,,1,0
59696349,Build: An Unorthodox Guide to Making Things Worth Making,Tony Fadell,"Fadell, Tony",,"=""1787634116""","=""9781787634114""",1,4.32,Bantam Press,Paperback,416,2022,,2024/06/08,2024/05/15,,,read,,,,1,0
24213,Alice’s Adventures in Wonderland / Through the Looking-Glass,Lewis Carroll,"Carroll, Lewis","Martin Gardner, John Tenniel","=""""","=""""",2,4.07,Penguin Group (USA),Paperback,239,2000,1871,2024/03/14,2024/05/16,,,read,,,,1,0
58480,The Way to Wealth (Books of American Wisdom),Benjamin Franklin,"Franklin, Benjamin",,"=""0918222885""","=""9780918222886""",2,4.09,Applewood Books,Hardcover,30,1986,1757,2025/03/28,2024/05/19,,,read,,,,1,0
17697774,Computing machinery and intelligence,Alan M. Turing,"Turing, Alan M.",,"=""""","=""""",2,4.16,MSAC Philosophy Group,Unbound,24,2009,1950,2025/03/10,2024/05/20,,,read,,,,1,0
534289,The I Ching or Book of Changes,Anonymous,"Anonymous, Anonymous","Richard Wilhelm, Cary F. Baynes, C.G. Jung","=""069109750X""","=""9780691097503""",1,4.19,Princeton University Press,Hardcover,740,1997,-850,2024/12/11,2024/05/22,,,read,,,,1,0
493,My Inventions,Nikola Tesla,"Tesla, Nikola",,"=""1599869942""","=""9781599869940""",4,3.91,"Filiquarian Publishing, LLC.",Paperback,88,2006,1935,2025/01/21,2024/05/20,,,read,,,,1,0
52101,Strength to Love,Martin Luther King Jr.,"Jr., Martin Luther King",,"=""0800614410""","=""9780800614416""",2,4.61,Fortress Press,Paperback,160,1981,1963,2024/07/08,2024/05/23,,,read,,,,1,0
54493401,Project Hail Mary,Andy Weir,"Weir, Andy",,"=""0593135202""","=""9780593135204""",2,4.50,Ballantine Books,Hardcover,476,2021,2021,2025/02/07,2024/05/25,,,read,,,,1,0
17744,"The Visual Display of Quantitative Information, 2nd Ed.",Edward R. Tufte,"Tufte, Edward R.",,"=""0961392142""","=""9780961392147""",1,4.39,Graphics Press,Hardcover,197,2001,1983,2024/05/11,2024/05/25,,,read,,,,1,0
26156469,Never Split the Difference: Negotiating As If Your Life Depended On It,Chris Voss,"Voss, Chris",Tahl Raz,"=""0062407805""","=""9780062407801""",3,4.35,Harper Business,Hardcover,274,2016,2016,2025/02/07,2024/05/27,,,read,,,,1,0
464260,The Fire Next Time,James Baldwin,"Baldwin, James",,"=""067974472X""","=""9780679744726""",2,4.55,Vintage,Paperback,106,1992,1963,2024/05/24,2024/05/28,,,read,,,,1,0
21348,Aesop’s Fables,Aesop,"Aesop, Aesop","Laura Harris, V.S. Vernon Jones, Edward Julius Detmold, G.K. Chesterton, Laura   Gibbs","=""0192840509""","=""9780192840509""",2,4.05,Oxford University Press,Paperback,352,2003,-560,2024/04/16,2024/06/01,,,read,,,,1,0
1923820,The Holy Bible: King James Version,Anonymous,"Anonymous, Anonymous",,"=""""","=""""",3,4.44,,Hardcover,1590,2008,1611,2024/10/13,2024/06/07,philosophy-religion,philosophy-religion (#1),read,,,,1,0
6295,Howl and Other Poems,Allen Ginsberg,"Ginsberg, Allen",William Carlos Williams,"=""0872863107""","=""9780872863101""",1,4.13,City Lights,Hardcover,56,2001,1956,2024/06/04,2024/06/07,,,read,,,,1,0
23841432,Night Sky with Exit Wounds,Ocean Vuong,"Vuong, Ocean",,"=""""","=""""",1,4.18,Copper Canyon Press,Paperback,89,2016,2016,2024/04/04,2024/06/10,poetry,poetry (#9),read,,,,1,0
276779,The Zen Teaching of Huang Po: On the Transmission of Mind,Huang Po,"Po, Huang","John Blofeld, P'ei Hsiu","=""0802150926""","=""9780802150929""",2,4.44,Grove Press,Paperback,144,1994,857,2024/04/14,2024/06/14,philosophy-religion,philosophy-religion (#60),read,,,,1,0
408501,Wicca for Beginners: Fundamentals of Philosophy & Practice,Thea Sabin,"Sabin, Thea",,"=""0738707511""","=""9780738707518""",1,4.00,Llewellyn Publications,Paperback,288,2006,2006,2024/10/12,2024/06/23,philosophy-religion,philosophy-religion (#57),read,,,,1,0
57030638,"Woke, Inc.: Inside Corporate America's Social Justice Scam",Vivek Ramaswamy,"Ramaswamy, Vivek",,"=""1546090789""","=""9781546090786""",2,4.02,Center Street,Hardcover,368,2021,2021,2024/08/14,2024/08/14,,,read,,,,1,0
34852836,"The Promised Neverland, Vol. 1",Kaiu Shirai,"Shirai, Kaiu",Posuka Demizu,"=""1421597128""","=""9781421597126""",5,4.42,VIZ Media LLC,Paperback,189,2017,2016,2024/02/17,2024/10/18,,,read,,,,1,0
2793263,Sidooh V.1,Tsutomu Takahashi,"Takahashi, Tsutomu",高橋ツトム,"=""4088768124""","=""9784088768120""",2,3.96,Shueisha,Paperback,222,2005,2005,2025/03/18,2024/11/07,,,read,,,,1,0
7015635,Food Rules: An Eater's Manual,Michael Pollan,"Pollan, Michael",,"=""014311638X""","=""9780143116387""",4,3.99,Penguin Books,Paperback,152,2009,2008,2024/08/22,2024/11/26,,,read,,,,1,0
315425,In Defense of Food: An Eater's Manifesto,Michael Pollan,"Pollan, Michael",,"=""1594201455""","=""9781594201455""",2,4.07,Penguin Press,Hardcover,205,2008,2008,2024/08/12,2024/11/26,,,read,,,,1,0
48757,The Tao of Pooh,Benjamin Hoff,"Hoff, Benjamin",Ernest H. Shepard,"=""1405204265""","=""9781405204262""",2,4.01,Egmont Books,Paperback,176,2003,1982,2024/08/14,2024/12/05,,,read,,,,1,0
79781,Basic Mathematics,Serge Lang,"Lang, Serge",,"=""0387967877""","=""9780387967875""",0,4.33,Springer,Paperback,496,1988,1988,2024/06/27,2024/12/07,,,read,,,,1,0
3667113,A Practical Guide to Quantitative Finance Interviews,Xinfeng Zhou,"Zhou, Xinfeng",,"=""1435715756""","=""9781435715752""",3,4.46,Lulu.Com,Paperback,195,2008,2008,2024/06/18,2024/12/12,,,read,,,,1,0
5675575,Quant Job Interview Questions And Answers,Mark Joshi,"Joshi, Mark","Nick Denson, Andrew Downes","=""143821703X""","=""9781438217031""",2,4.16,CreateSpace,Paperback,326,2008,2008,2024/06/18,2024/12/12,,,read,,,,1,0
613077,Fifty Challenging Problems in Probability with Solutions (Dover Books on Mathematics),Frederick Mosteller,"Mosteller, Frederick",,"=""0486653552""","=""9780486653556""",2,4.14,Dover Publications,Paperback,96,1987,1965,2024/06/11,2024/12/13,,,read,,,,1,0
19167972,Hair Like a Fox: A Bioenergetic View of Pattern Hair Loss,Danny Roddy,"Roddy, Danny",,"=""0615400604""","=""9780615400600""",3,3.93,"The Danny Roddy Weblog, LLC",Kindle Edition,112,2014,2013,2025/01/21,2024/12/22,,,read,,,,1,0
777423,"Claymore, Vol. 1: Silver-eyed Slayer (Claymore, #1)",Norihiro Yagi,"Yagi, Norihiro",,"=""1421506181""","=""9781421506180""",4,4.10,VIZ Media LLC,Paperback,187,2006,2002,2024/07/24,2024/12/29,,,read,,,,1,0
547608,Beelzebub's Tales to His Grandson,G.I. Gurdjieff,"Gurdjieff, G.I.",,"=""1585424579""","=""9781585424573""",1,4.15,TarcherPerigee,Hardcover,1152,2006,1950,2025/01/03,2025/01/13,,,read,,,,1,0
25942786,The Mind Illuminated: A Complete Meditation Guide Integrating Buddhist Wisdom and Brain Science,Culadasa (John Charles Yates),"Yates), Culadasa (John Charles","John Charles Yates, Matthew Immergut, Jeremy Graves","=""0990847705""","=""9780990847700""",1,4.26,Dharma Treasure Press,Paperback,504,2015,2015,2025/01/04,2025/01/16,philosophy-religion,philosophy-religion (#105),read,,,,1,0
19182741,Say Goodnight to Insomnia: A Drug-Free Programme Developed at Harvard Medical School,Gregg D. Jacobs,"Jacobs, Gregg D.",,"=""190574482X""","=""9781905744824""",1,3.81,Bluebird,Kindle Edition,260,2011,1999,2025/01/12,2025/01/25,,,read,,,,1,0
16291796,Polishing the Mirror: How to Live from Your Spiritual Heart,Ram Dass,"Dass, Ram",Rameshwar Das,"=""1604079673""","=""9781604079678""",1,4.47,Sounds True,Hardcover,192,2013,2013,2025/01/07,2025/02/03,,,read,,,,1,0
27037,Confessions,Augustine of Hippo,"Hippo, Augustine of","Henry Chadwick, Albert Cook Outler, Temple Scott","=""0192833723""","=""9780192833723""",2,3.98,Oxford University Press,Paperback,341,1998,400,2025/04/16,2025/02/13,,,read,,,,1,0
1032,Trump: The Art of the Deal,Donald J. Trump,"Trump, Donald J.",Tony Schwartz,"=""0345479173""","=""9780345479174""",2,3.70,Fisicalbook,Paperback,384,2004,1987,2025/02/06,2025/03/15,,,read,,,,1,0
6562917,Mein Kampf,Adolf Hitler,"Hitler, Adolf","Abraham Foxman, Ralph Manheim","=""""","=""""",1,3.18,Harper,Kindle Edition,722,,,2025/03/05,2025/03/15,,,read,,,,1,0
52317884,The Jaunt,Stephen        King,"King, Stephen",,"=""""","=""""",3,4.19,,Unknown Binding,25,,1981,2025/02/06,2025/03/15,,,read,,,,1,0
17837762,Uzumaki,Junji Ito,"Ito, Junji",Yuji Oniki,"=""1421561328""","=""9781421561325""",3,4.45,VIZ Media,Hardcover,653,2013,2000,2024/07/05,2025/03/15,,,read,,,,1,0
30257963,12 Rules for Life: An Antidote to Chaos,Jordan B. Peterson,"Peterson, Jordan B.",,"=""0345816021""","=""9780345816023""",2,3.91,Random House Canada,Hardcover,409,2018,2018,2025/01/04,2025/03/15,,,read,,,,1,0
225461,The Unabomber Manifesto: Industrial Society & Its Future,Theodore John Kaczynski,"Kaczynski, Theodore John",,"=""0963420526""","=""9780963420527""",2,3.85,Jolly Roger Pr,Paperback,90,1995,1995,2024/03/04,2025/03/19,,,read,,,,1,0
54838181,十字架のろくにん 1 [Jūjika no Rokunin 1],Shiryu Nakatake,"Nakatake, Shiryu",中武士竜,"=""4065201225""","=""9784065201220""",4,3.69,講談社,Paperback,192,2020,,2025/02/01,2025/03/22,,,read,,,,1,0
42075170,呪術廻戦 1 [Jujutsu Kaisen 1],Gege Akutami,"Akutami, Gege",芥見下々,"=""4088815165""","=""9784088815169""",4,4.51,集英社,Paperback,192,2018,2018,2024/07/02,2025/03/29,,,read,,,,1,0
214867,"Invincible, Vol. 1: Family Matters",Robert Kirkman,"Kirkman, Robert",Cory Walker,"=""1582407118""","=""9781582407111""",4,4.03,Image Comics,Paperback,124,2021,2003,2025/02/03,2025/04/01,,,read,,,,1,0
42733961,"나 혼자만 레벨업 1 (Solo Leveling, #1)",Dubu (Redice Studio),"Studio), Dubu (Redice","장성락, Chugong, 추공","=""""","=""9791189320294""",3,4.46,디앤씨웹툰비즈,Paperback,312,2019,2019,2025/02/01,2025/04/05,,,read,,,,1,0
44086594,Thus Spake Jed McKenna: Author of the Enlightenment and Dreamstate Trilogies,Jed McKenna,"McKenna, Jed",Ned McFeely,"=""0997879742""","=""9780997879742""",3,4.35,Wisefool Press,Kindle Edition,188,2019,,2025/02/19,2025/04/16,,,read,,,,1,0
49181885,Jed Talks #3: The Tao of the Large-Breasted Goddess with the Shapely Behind,Jed McKenna,"McKenna, Jed",,"=""1734353414""","=""9781734353419""",2,4.61,Wisefool Press,Kindle Edition,250,2019,,2025/02/10,2025/04/12,,,read,,,,1,0
59973,Daredevil: The Man Without Fear,Frank Miller,"Miller, Frank",,"=""0785100466""","=""9780785100461""",3,4.26,Marvel Comics,Paperback,160,2003,1993,2025/02/12,2025/04/05,,,read,,,,1,0
2074907,Rainbow Vol. 1,George Abe,"Abe, George",Masasumi Kakizaki,"=""9792710337""","=""9789792710335""",4,4.25,Level Comics,Paperback,,2007,2003,2025/03/02,2025/04/22,,,read,,,,1,0
1705646,Zetman 1,Masakazu Katsura,"Katsura, Masakazu",,"=""408876529X""","=""9784088765297""",2,3.83,Shueisha,Paperback,248,2003,2003,2025/03/22,2025/04/22,,,read,,,,1,0
2824337,Gantz/1,Hiroya Oku,"Oku, Hiroya",,"=""1593079494""","=""9781593079499""",2,3.91,Dark Horse Manga,Paperback,224,2008,2000,2025/03/25,2025/04/22,,,read,,,,1,0
51086522,"Hell's Paradise: Jigokuraku, Vol. 1",Yūji Kaku,"Kaku, Yūji",,"=""1974713202""","=""9781974713202""",2,4.27,VIZ Media LLC,Paperback,208,2020,2018,2025/04/13,2025/04/23,,,read,,,,1,0
6759156,"Dorohedoro, Vol. 1 (Dorohedoro, #1)",Q. Hayashida,"Hayashida, Q.",,"=""1421533634""","=""9781421533636""",3,4.33,VIZ Media LLC,Paperback,166,2010,2002,2025/04/22,2025/04/26,,,read,,,,1,0
1095892,Bastard!! (Volume 1),Kazushi Hagiwara,"Hagiwara, Kazushi",,"=""1591160022""","=""9781591160021""",1,3.64,VIZ Media LLC,Paperback,200,2002,1988,2025/04/05,2025/04/27,,,read,,,,1,0
42835863,Prodigy: The Evil Earth,Mark Millar,"Millar, Mark","Rafael Albuquerque, Marcelo Maiolo, Peter Doherty","=""1534312366""","=""9781534312364""",1,3.32,Image Comics,Paperback,168,2019,2019,2025/04/06,2025/04/27,,,read,,,,1,0
15789310,Deadpool Kills the Marvel Universe,Cullen Bunn,"Bunn, Cullen","Kaare Andrews, Dalibor Talajić","=""0785164030""","=""9780785164036""",2,3.81,Marvel,Paperback,96,2012,2011,2025/04/07,2025/04/27,,,read,,,,1,0
52541753,Batman: Three Jokers,Geoff Johns,"Johns, Geoff","Jason Fabok, Brad  Anderson","=""1779500238""","=""9781779500236""",2,3.97,DC Comics,Hardcover,160,2020,2020,2025/04/08,2025/04/27,,,read,,,,1,0
32321,"Blame!, Vol. 1",Tsutomu Nihei,"Nihei, Tsutomu",,"=""1595328343""","=""9781595328342""",1,4.13,TokyoPop,Paperback,256,2005,1998,2025/04/10,2025/04/28,,,read,,,,1,0
74928,"Hellsing, Vol. 1 (Hellsing, #1)",Kohta Hirano,"Hirano, Kohta","Duane Johnson, Wilbert Lacuna","=""159307056X""","=""9781593070564""",2,4.26,Dark Horse Comics LLC,Paperback,208,2009,1998,2025/05/02,2025/05/02,,,read,,,,1,0
588234,Ceremony,Leslie Marmon Silko,"Silko, Leslie Marmon",,"=""0140086838""","=""9780140086836""",3,3.84,Penguin Books,Paperback,262,1986,1977,2021/01/01,2025/01/26,,,read,,,,1,0
34150779,The Gambler: How Penniless Dropout Kirk Kerkorian Became the Greatest Deal Maker in Capitalist History,William C. Rempel,"Rempel, William C.",,"=""0062456776""","=""9780062456779""",0,4.36,Dey Street Books,Hardcover,432,2018,2018,,2025/04/25,"to-read, nonfiction","to-read (#647), nonfiction (#459)",to-read,,,,0,0
55892508,The Easy Peasy Way to Quit Porn,Hackauthor²,"Hackauthor², Hackauthor²",,"=""""","=""""",0,4.16,,Unknown Binding,108,2020,,2025/04/08,2025/02/24,,,read,,,,1,0
3040,Black Rednecks and White Liberals,Thomas Sowell,"Sowell, Thomas",,"=""1594030863""","=""9781594030864""",3,4.37,Encounter Books,Hardcover,372,2005,2005,2025/02/24,2025/02/22,,,read,,,,1,0
4981,Slaughterhouse-Five,Kurt Vonnegut Jr.,"Jr., Kurt Vonnegut",,"=""""","=""""",2,4.10,Dial Press,Paperback,275,1999,1969,2025/03/16,2024/05/14,,,read,,,,1,0
647492,Ordinary Men: Reserve Police Battalion 101 and the Final Solution in Poland,Christopher R. Browning,"Browning, Christopher R.",,"=""0060995068""","=""9780060995065""",0,4.11,Harper Perennial,Paperback,271,1998,1992,,2025/03/14,"nonfiction, to-read","nonfiction (#458), to-read (#646)",to-read,,,,0,0
95784,The Rape of Nanking: The Forgotten Holocaust of World War II,Iris Chang,"Chang, Iris",,"=""0140277447""","=""9780140277449""",0,4.24,Penguin Books,Paperback,290,1998,1997,,2025/03/14,"nonfiction, to-read","nonfiction (#457), to-read (#645)",to-read,,,,0,0
95420,Personal History: A Memoir,Katharine Graham,"Graham, Katharine",,"=""0375701044""","=""9780375701047""",0,4.09,Vintage,Paperback,642,1998,1997,,2025/03/01,"to-read, nonfiction","to-read (#644), nonfiction (#456)",to-read,,,,0,0
424884,The New Quotable Einstein,Alice Calaprice,"Calaprice, Alice","Freeman Dyson, Albert Einstein","=""0691120757""","=""9780691120751""",0,4.07,Princeton University Press,Paperback,440,2005,1996,,2025/03/01,"to-read, nonfiction","to-read (#643), nonfiction (#455)",to-read,,,,0,0
16158522,Eleven Rings: The Soul of Success,Phil Jackson,"Jackson, Phil","Hugh Delehanty, Margarita Cavándoli","=""1611761670""","=""9781611761672""",1,4.19,Penguin Audio,Audio CD,,2013,2013,2025/02/25,2024/05/28,,,read,,,,1,0
15857716,Henry J. Kaiser: Builder in the Modern American West (American Studies Series),Mark S. Foster,"Foster, Mark S.",,"=""0292742266""","=""9780292742260""",0,4.06,University of Texas Press,Paperback,406,1989,1989,,2025/02/22,"to-read, nonfiction","to-read (#642), nonfiction (#454)",to-read,,,,0,0
722412,The Dream Machine: J.C.R. Licklider and the Revolution That Made Computing Personal,M. Mitchell Waldrop,"Waldrop, M. Mitchell",,"=""014200135X""","=""9780142001356""",0,4.55,Penguin Books,Paperback,512,2002,2001,,2025/02/22,"to-read, nonfiction","to-read (#641), nonfiction (#453)",to-read,,,,0,0
46306,The Complete Fairy Tales,Hans Christian Andersen,"Andersen, Hans Christian",Lily Owens,"=""0517092913""","=""9780517092910""",1,4.29,Gramercy Books,Hardcover,803,1996,1850,2025/02/20,2024/06/02,,,read,,,,1,0
112803,Gandhi: An Autobiography,Mahatma Gandhi,"Gandhi, Mahatma",Mahadev Desai,"=""""","=""""",0,4.10,Beacon Press,Paperback,528,1993,1927,,2025/02/18,"to-read, nonfiction","to-read (#640), nonfiction (#452)",to-read,,,,0,0
77265004,The Iliad,Homer,"Homer, Homer",Emily Wilson,"=""1324001801""","=""9781324001805""",1,3.92,W. W. Norton & Company,Hardcover,848,2023,-800,2025/02/14,2024/05/19,fiction,fiction (#11),read,,,,1,0
7604,Lolita,Vladimir Nabokov,"Nabokov, Vladimir",Craig Raine,"=""0679723161""","=""9780679723165""",1,3.87,Penguin,Paperback,368,1995,1955,2025/02/14,2024/05/19,fiction,fiction (#6),read,,,,1,0
289058,About Face: Odyssey Of An American Warrior,David H. Hackworth,"Hackworth, David H.",Julie Sherman,"=""0671526928""","=""9780671526924""",0,4.38,Simon & Schuster,Hardcover,875,1989,1989,,2025/02/10,"to-read, nonfiction","to-read (#639), nonfiction (#451)",to-read,,,,0,0
154414,Economic Sophisms,Frédéric Bastiat,"Bastiat, Frédéric","Arthur Goddard, Jacques De Guenin, Henry Hazlitt","=""0910614148""","=""9780910614146""",0,4.30,Foundation for Economic Education,Paperback,291,1996,1845,,2025/02/09,"nonfiction, to-read","nonfiction (#449), to-read (#638)",to-read,,,,0,0
6613404,Anatomy of the State,Murray N. Rothbard,"Rothbard, Murray N.",,"=""1933550481""","=""9781933550480""",0,4.19,Ludwig von Mises Institute,Paperback,60,2009,1974,,2025/02/09,"philosophy-religion, to-read","philosophy-religion (#107), to-read (#637)",to-read,,,,0,0
899173,The Secret of the Golden Flower: A Chinese Book of Life,Lü Dongbin,"Dongbin, Lü","Richard Wilhelm, Cary F. Baynes, C.G. Jung, Salome Wilhelm","=""0156799804""","=""9780156799805""",1,4.15,Harvest Books,Paperback,149,1962,2004,2025/02/07,2024/05/22,,,read,,,,1,0
617484,George Washington's Farewell Address (Books of American Wisdom),George Washington,"Washington, George","Abraham Lincoln, Daniel Webster","=""1557094543""","=""9781557094544""",1,4.46,Applewood Books,Hardcover,40,1999,1913,,2024/05/19,,,read,,,,2,0
123933,No Exit,Jean-Paul Sartre,"Sartre, Jean-Paul",,"=""0573613052""","=""9780573613050""",2,4.12,Concord Theatricals,Paperback,60,1958,1944,2025/02/05,2024/05/18,philosophy-religion,philosophy-religion (#11),read,,,,1,0
122765395,Elon Musk,Walter Isaacson,"Isaacson, Walter",,"=""1982181281""","=""9781982181284""",2,4.35,Simon & Schuster,Hardcover,688,2023,2023,2025/01/31,2024/06/01,,,read,,,,1,0
1521810,A Chemical History of a Candle,Michael Faraday,"Faraday, Michael",William Crookes,"=""1594627207""","=""9781594627200""",0,3.95,Book Jungle,Paperback,,2007,1861,,2025/01/26,"to-read, textbooks","to-read (#636), textbooks (#182)",to-read,,,,0,0
34921573,Lost Connections: Uncovering the Real Causes of Depression - and the Unexpected Solutions,Johann Hari,"Hari, Johann",,"=""163286830X""","=""9781632868305""",0,4.26,Bloomsbury USA,Hardcover,322,2018,2018,,2025/01/26,"to-read, nonfiction","to-read (#635), nonfiction (#448)",to-read,,,,0,0
171681821,The Anxious Generation: How the Great Rewiring of Childhood Caused an Epidemic of Mental Illness,Jonathan Haidt,"Haidt, Jonathan",,"=""0593655036""","=""9780593655030""",0,4.35,Penguin Press,Hardcover,400,2024,2024,,2025/01/26,"to-read, parenting","to-read (#634), parenting (#14)",to-read,,,,0,0
924075,I Seem To Be A Verb,R. Buckminster Fuller,"Fuller, R. Buckminster","Jerome Agel, Quentin Fiore","=""1127231537""","=""9781127231539""",0,4.31,Bantam,Paperback,192,1970,1970,,2025/01/26,"to-read, philosophy-religion","to-read (#633), philosophy-religion (#106)",to-read,,,,0,0
528480,Materials Science and Engineering: An Introduction,William D. Callister Jr.,"Jr., William D. Callister",,"=""0471135763""","=""9780471135760""",0,4.09,Wiley,Hardcover,848,2002,1985,,2025/01/25,"to-read, textbooks","to-read (#632), textbooks (#181)",to-read,,,,0,0
222825841,The Sovereign Child: How a Forgotten Philosophy Can Liberate Kids and Their Parents,Aaron Stupple,"Stupple, Aaron",,"=""1544547986""","=""9781544547985""",0,3.43,Conjecture Institute,Kindle Edition,,2025,,,2025/01/16,"to-read, parenting","to-read (#631), parenting (#13)",to-read,,,,0,0
214441,Euclid's Elements,Euclid,"Euclid, Euclid","Dana Densmore, Thomas Little Heath","=""1888009195""","=""9781888009194""",0,4.32,Green Lion Press,Paperback,529,2002,-290,,2025/01/09,"to-read, textbooks","to-read (#630), textbooks (#180)",to-read,,,,0,0
1816992,Introductory Mycology,C.J. Alexopoulos,"Alexopoulos, C.J.",,"=""0471522295""","=""9780471522294""",0,4.21,Wiley,Hardcover,,1996,1962,2025/01/09,2024/05/31,,,read,,,,1,0
13166586,The Fish That Ate the Whale: The Life and Times of America's Banana King,Rich Cohen,"Cohen, Rich",,"=""0374299277""","=""9780374299279""",0,4.11,"Farrar, Straus and Giroux",Hardcover,288,2012,2012,,2025/01/09,"to-read, nonfiction","to-read (#629), nonfiction (#447)",to-read,,,,0,0
141499,Failure is Not an Option: Mission Control From Mercury to Apollo 13 and Beyond,Gene Kranz,"Kranz, Gene",,"=""0425179877""","=""9780425179871""",0,4.30,Berkley Trade,Paperback,416,2001,2000,,2025/01/09,"to-read, nonfiction","to-read (#628), nonfiction (#446)",to-read,,,,0,0
193659,Lost Moon: The Perilous Voyage of Apollo 13,Jim Lovell,"Lovell, Jim","Jeffrey Kluger, Fred Sanders","=""0395670292""","=""9780395670293""",0,4.38,Houghton Mifflin,Hardcover,378,1994,1994,,2025/01/09,"to-read, nonfiction","to-read (#627), nonfiction (#445)",to-read,,,,0,0
35414997,Rocket Men: The Daring Odyssey of Apollo 8 and the Astronauts Who Made Man's First Journey to the Moon,Robert Kurson,"Kurson, Robert",,"=""0812988701""","=""9780812988703""",0,4.53,Random House,Hardcover,384,2018,2018,,2025/01/09,"to-read, nonfiction","to-read (#626), nonfiction (#444)",to-read,,,,0,0
749138,Edison: A Biography,Matthew Josephson,"Josephson, Matthew",,"=""0471548065""","=""9780471548065""",0,4.06,Wiley,Paperback,528,1992,1959,,2025/01/08,"nonfiction, to-read","nonfiction (#443), to-read (#625)",to-read,,,,0,0
6759,Infinite Jest,David Foster Wallace,"Wallace, David Foster",,"=""""","=""""",0,4.25,Back Bay Books,Paperback,1088,2005,1996,,2025/01/05,"to-read, philosophy-religion","to-read (#624), philosophy-religion (#104)",to-read,,,,0,0
739791,Reinforcement Learning: An Introduction (Adaptive Computation and Machine Learning),Richard S. Sutton,"Sutton, Richard S.",Andrew G. Barto,"=""0262193981""","=""9780262193986""",0,4.54,Bradford Books,Hardcover,322,1998,,,2025/01/03,"to-read, textbooks","to-read (#623), textbooks (#179)",to-read,,,,0,0
252577,"Angela’s Ashes (Frank McCourt, #1)",Frank McCourt,"McCourt, Frank",,"=""0007205236""","=""9780007205233""",0,4.15,Harper Perennial,Paperback,452,2005,1996,,2025/01/03,"nonfiction, to-read","nonfiction (#442), to-read (#622)",to-read,,,,0,0
19865161,Doing the Impossible: George E. Mueller and the Management of NASA’s Human Spaceflight Program (Springer Praxis Books),Arthur L. Slotkin,"Slotkin, Arthur L.",,"=""""","=""""",0,4.15,Springer,Kindle Edition,280,2012,2012,,2025/01/01,"to-read, nonfiction","to-read (#621), nonfiction (#441)",to-read,,,,0,0
2422710,Digital Apollo: Human and Machine in Spaceflight,David A. Mindell,"Mindell, David A.",,"=""0262134977""","=""9780262134972""",0,4.29,MIT Press,Hardcover,359,2008,2008,,2025/01/01,"to-read, nonfiction","to-read (#620), nonfiction (#440)",to-read,,,,0,0
350,Stranger in a Strange Land,Robert A. Heinlein,"Heinlein, Robert A.",James Warhola,"=""""","=""""",0,3.92,Ace,Paperback,525,1991,1961,,2024/12/28,"to-read, fiction","to-read (#619), fiction (#42)",to-read,,,,0,0
204927599,Nexus: A Brief History of Information Networks from the Stone Age to AI,Yuval Noah Harari,"Harari, Yuval Noah",,"=""059373422X""","=""9780593734223""",0,4.18,Random House,Hardcover,528,2024,2024,,2024/12/28,"nonfiction, to-read","nonfiction (#439), to-read (#618)",to-read,,,,0,0
55384168,No Bad Parts: Healing Trauma and Restoring Wholeness with the Internal Family Systems Model,Richard C. Schwartz,"Schwartz, Richard C.",Alanis Morissette,"=""1683646681""","=""9781683646686""",0,4.14,Sounds True,Paperback,216,2021,2021,,2024/12/27,"to-read, parenting","to-read (#617), parenting (#12)",to-read,,,,0,0
60784603,Hello Sleep: The Science and Art of Overcoming Insomnia Without Medications,Jade Wu,"Wu, Jade",,"=""1250828406""","=""9781250828408""",0,4.16,St. Martin's Essentials,Hardcover,384,2023,2023,,2024/12/19,"to-read, nonfiction","to-read (#616), nonfiction (#438)",to-read,,,,0,0
34466963,Why We Sleep: Unlocking the Power of Sleep and Dreams,Matthew Walker,"Walker, Matthew",,"=""""","=""""",0,4.38,Scribner,Hardcover,368,2017,2017,,2024/12/19,"to-read, nonfiction","to-read (#615), nonfiction (#437)",to-read,,,,0,0
216114654,"Consolations II: The Solace, Nourishment and Underlying Meaning of Everyday Words",David Whyte,"Whyte, David",,"=""1837263493""","=""9781837263493""",0,4.62,Canongate Books,Kindle Edition,316,2024,,,2024/12/13,"to-read, poetry","to-read (#614), poetry (#31)",to-read,,,,0,0
48944693,David Whyte Essentials,David Whyte,"Whyte, David",,"=""1932887504""","=""9781932887501""",0,4.65,Many Rivers Press,Paperback,119,2019,,,2024/12/13,"to-read, poetry","to-read (#613), poetry (#30)",to-read,,,,0,0
52163526,The Cancer Code: A Revolutionary New Understanding of a Medical Mystery,Jason Fung,"Fung, Jason",,"=""0062894021""","=""9780062894021""",0,4.45,Harper Wave,ebook,288,2020,2020,,2024/12/13,"to-read, nonfiction","to-read (#612), nonfiction (#436)",to-read,,,,0,0
1020020,Planning Algorithms,Steven M. LaValle,"LaValle, Steven M.",,"=""0521862051""","=""9780521862059""",0,4.13,Cambridge University Press,Hardcover,,2006,2002,,2024/12/11,"to-read, textbooks","to-read (#611), textbooks (#178)",to-read,,,,0,0
3345976,Springer Handbook of Robotics,Bruno Siciliano,"Siciliano, Bruno",,"=""354023957X""","=""9783540239574""",0,4.49,Springer,Hardcover,1611,2008,2008,,2024/12/11,"to-read, textbooks","to-read (#610), textbooks (#177)",to-read,,,,0,0
17720341,Modern Particle Physics,Mark    Thomson,"Thomson, Mark",,"=""1107034264""","=""9781107034266""",0,4.28,Cambridge University Press,Hardcover,570,2013,2013,,2024/12/11,"to-read, textbooks","to-read (#609), textbooks (#176)",to-read,,,,0,0
166480,Principles of Condensed Matter Physics,P.M. Chaikin,"Chaikin, P.M.",T. C. Lubensky,"=""0521794501""","=""9780521794503""",0,4.14,Cambridge University Press,Paperback,720,2000,1995,,2024/12/11,"to-read, textbooks","to-read (#608), textbooks (#175)",to-read,,,,0,0
17360,A First Course in String Theory,Barton Zwiebach,"Zwiebach, Barton",,"=""0521831431""","=""9780521831437""",0,4.18,Cambridge University Press,Hardcover,558,2004,2004,,2024/12/11,"to-read, textbooks","to-read (#607), textbooks (#174)",to-read,,,,0,0
488853,Introduction to Elementary Particles,David J. Griffiths,"Griffiths, David J.",,"=""0471603864""","=""9780471603863""",0,4.25,John Wiley & Sons Inc,Hardcover,392,1987,1987,,2024/12/11,"to-read, textbooks","to-read (#606), textbooks (#173)",to-read,,,,0,0
842325,Introduction to Cosmology: Barbara Ryden,Barbara Ryden,"Ryden, Barbara",,"=""0805389121""","=""9780805389128""",0,4.25,Addison-Wesley,Hardcover,237,2003,2002,,2024/12/11,"to-read, textbooks","to-read (#605), textbooks (#172)",to-read,,,,0,0
301604,Biophysics: An Introduction,Roland Glaser,"Glaser, Roland",,"=""3540670882""","=""9783540670889""",0,4.35,Springer,Paperback,361,2001,2004,,2024/12/11,"to-read, textbooks","to-read (#604), textbooks (#171)",to-read,,,,0,0
396218,An Introduction to Modern Astrophysics,Bradley W. Carroll,"Carroll, Bradley W.",Dale A. Ostlie,"=""0201547309""","=""9780201547306""",0,4.27,Benjamin Cummings,Hardcover,1326,1995,2003,,2024/12/11,"to-read, textbooks","to-read (#603), textbooks (#170)",to-read,,,,0,0
34008,An Introduction to Thermal Physics,Daniel V. Schroeder,"Schroeder, Daniel V.",,"=""0201380277""","=""9780201380279""",0,3.91,Pearson,Hardcover,432,1999,1999,,2024/12/11,"to-read, textbooks","to-read (#602), textbooks (#169)",to-read,,,,0,0
703104,"Div, Grad, Curl, and All That: An Informal Text on Vector Calculus",Harry M. Schey,"Schey, Harry M.",,"=""0393925161""","=""9780393925166""",0,4.24,W. W. Norton & Company,Paperback,176,2004,1973,,2024/12/11,"to-read, textbooks","to-read (#601), textbooks (#168)",to-read,,,,0,0
3094871,A Student's Guide to Maxwell's Equations (Student's Guides),Daniel Fleisch,"Fleisch, Daniel",,"=""0521701473""","=""9780521701471""",0,4.42,Cambridge University Press,Paperback,142,2008,2007,,2024/12/11,"to-read, textbooks","to-read (#600), textbooks (#167)",to-read,,,,0,0
245483,Classical Mechanics,John R. Taylor,"Taylor, John R.",,"=""189138922X""","=""9781891389221""",0,4.29,University Science Books,Board Book,786,2005,2003,,2024/12/11,"textbooks, to-read","textbooks (#166), to-read (#599)",to-read,,,,0,0
125139,University Physics with Modern Physics,Hugh D. Young,"Young, Hugh D.",Roger A. Freedman,"=""080538684X""","=""9780805386844""",0,4.12,Addison-Wesley Longman Publishing,Hardcover,1714,2003,1949,,2024/12/08,"to-read, textbooks","to-read (#598), textbooks (#165)",to-read,,,,0,0
249213,Deep Down Things: The Breathtaking Beauty of Particle Physics,Bruce A. Schumm,"Schumm, Bruce A.",,"=""080187971X""","=""9780801879715""",0,4.34,Johns Hopkins University Press,Hardcover,392,2004,2004,,2024/12/08,"to-read, textbooks","to-read (#597), textbooks (#164)",to-read,,,,0,0
1000529,Spacetime Physics: Introduction to Special Relativity,Edwin F. Taylor,"Taylor, Edwin F.",John Archibald Wheeler,"=""0716723271""","=""9780716723271""",0,4.23,W. H. Freeman,Paperback,312,1992,1966,,2024/12/08,"to-read, textbooks","to-read (#596), textbooks (#163)",to-read,,,,0,0
329259,The Second Creation: Makers of the Revolution in Twentieth-Century Physics,Robert P. Crease,"Crease, Robert P.",Charles C. Mann,"=""0813521777""","=""9780813521770""",0,4.21,Rutgers University Press,Paperback,496,1996,1985,,2024/12/08,"to-read, nonfiction","to-read (#595), nonfiction (#435)",to-read,,,,0,0
245485,Classical Mechanics,Charles P. Poole Jr.,"Jr., Charles P. Poole",John L. Safko,"=""0201657023""","=""9780201657029""",0,4.10,Addison-Wesley,Hardcover,638,2002,1950,,2024/12/08,"to-read, textbooks","to-read (#594), textbooks (#162)",to-read,,,,0,0
60049864,General Relativity,Leonard Susskind,"Susskind, Leonard",André Cabannes,"=""0241562589""","=""9780241562581""",0,4.40,Allen Lane,Hardcover,0,2023,,,2024/12/08,"to-read, nonfiction","to-read (#593), nonfiction (#434)",to-read,,,,0,0
53520,A First Course in General Relativity,Bernard F. Schutz,"Schutz, Bernard F.",,"=""0521277035""","=""9780521277037""",0,4.17,Cambridge University Press,Paperback,392,1985,1985,,2024/12/08,"to-read, textbooks","to-read (#592), textbooks (#161)",to-read,,,,0,0
29767627,Reality is Not What it Seems: The Journey to Quantum Gravity,Carlo Rovelli,"Rovelli, Carlo",,"=""5268439022""","=""9785268439021""",0,4.33,Allen Lane,Hardcover,256,2016,2014,,2024/12/08,"to-read, textbooks","to-read (#591), textbooks (#160)",to-read,,,,0,0
27248467,"Fundamentals of Physics II: Electromagnetism, Optics, and Quantum Mechanics (Volume 2) (The Open Yale Courses Series)",Ramamurti Shankar,"Shankar, Ramamurti",,"=""0300212364""","=""9780300212365""",0,4.46,Yale University Press,Paperback,608,2016,,,2024/12/08,"to-read, textbooks","to-read (#590), textbooks (#159)",to-read,,,,0,0
18693397,"Fundamentals of Physics: Mechanics, Relativity, and Thermodynamics (The Open Yale Courses Series)",Ramamurti Shankar,"Shankar, Ramamurti",,"=""0300192207""","=""9780300192209""",0,4.49,Yale University Press,Paperback,446,2014,2014,,2024/12/08,"to-read, textbooks","to-read (#589), textbooks (#158)",to-read,,,,0,0
143999,South: The Story of Shackleton's Last Expedition 1914-1917,Ernest Shackleton,"Shackleton, Ernest","Frank Hurley, Peter          King","=""0712664122""","=""9780712664127""",0,4.20,Penguin Books,Paperback,374,1999,1919,,2024/12/08,"to-read, nonfiction","to-read (#588), nonfiction (#433)",to-read,,,,0,0
4260548,Advanced Engineering Mathematics,S.R.K. Iyengar,"Iyengar, S.R.K.",Rajendra K. Jain,"=""1842653121""","=""9781842653128""",0,4.12,Alpha Science Intl Ltd,Hardcover,1416,2007,2002,,2024/12/07,"to-read, textbooks","to-read (#587), textbooks (#157)",to-read,,,,0,0
241452,Introductory Functional Analysis with Applications,Erwin Kreyszig,"Kreyszig, Erwin",,"=""0471504599""","=""9780471504597""",0,4.29,Wiley,Paperback,688,1989,1978,,2024/12/07,"to-read, textbooks","to-read (#586), textbooks (#156)",to-read,,,,0,0
585553,Number Theory (Dover Books on Mathematics),George E. Andrews,"Andrews, George E.",,"=""0486682528""","=""9780486682525""",0,4.07,Dover Publications,Paperback,288,1994,2012,,2024/12/07,"to-read, textbooks","to-read (#585), textbooks (#155)",to-read,,,,0,0
845794,Understanding Analysis (Undergraduate Texts in Mathematics),Stephen Abbott,"Abbott, Stephen",,"=""0387950605""","=""9780387950600""",0,4.47,Springer,Hardcover,272,2001,2000,,2024/12/07,"to-read, textbooks","to-read (#584), textbooks (#154)",to-read,,,,0,0
149800,Visual Complex Analysis,Tristan Needham,"Needham, Tristan",,"=""0198534469""","=""9780198534464""",0,4.48,Clarendon Press,Paperback,616,1999,1997,,2024/12/07,"to-read, textbooks","to-read (#583), textbooks (#153)",to-read,,,,0,0
9356168,Ordinary and Partial Differential Equations,M.D. Raisinghania,"Raisinghania, M.D.",S. Kolibal,"=""8121908922""","=""9788121908924""",0,4.05,S. Chand,Paperback,576,2005,2005,,2024/12/07,"to-read, textbooks","to-read (#582), textbooks (#152)",to-read,,,,0,0
4991297,Plane trigonometry,Sidney Luxton Loney,"Loney, Sidney Luxton",,"=""1418185094""","=""9781418185091""",0,4.63,"Scholarly Publishing Office, University of Michigan Library",Paperback,534,2005,1899,,2024/12/07,"to-read, textbooks","to-read (#581), textbooks (#151)",to-read,,,,0,0
739735,How to Prove It: A Structured Approach,Daniel J. Velleman,"Velleman, Daniel J.",,"=""0521675995""","=""9780521675994""",0,4.29,Cambridge University Press,Paperback,384,2006,1994,,2024/12/07,"to-read, textbooks","to-read (#580), textbooks (#150)",to-read,,,,0,0
4319274,Analytic Combinatorics,Philippe Flajolet,"Flajolet, Philippe",Robert Sedgewick,"=""0521898064""","=""9780521898065""",0,4.41,Cambridge University Press,Hardcover,826,2009,2008,,2024/12/07,"to-read, textbooks","to-read (#579), textbooks (#149)",to-read,,,,0,0
5299445,Quantum Computing for Computer Scientists,Noson S. Yanofsky,"Yanofsky, Noson S.",Mirco A. Mannucci,"=""0521879965""","=""9780521879965""",0,4.28,Cambridge University Press,Hardcover,402,2008,2008,,2024/12/07,"to-read, textbooks","to-read (#578), textbooks (#148)",to-read,,,,0,0
17471298,Quantum Computing Since Democritus,Scott Aaronson,"Aaronson, Scott",,"=""0521199565""","=""9780521199568""",0,4.15,Cambridge University Press,Paperback,370,2013,2013,,2024/12/07,"to-read, textbooks","to-read (#577), textbooks (#147)",to-read,,,,0,0
706377,The Cauchy-Schwarz Master Class: An Introduction to the Art of Mathematical Inequalities (Maa Problem Books Series.),J. Michael Steele,"Steele, J. Michael",,"=""052154677X""","=""9780521546775""",0,4.65,The Mathematical Association of America,Paperback,318,2004,2004,,2024/12/07,"to-read, textbooks","to-read (#576), textbooks (#146)",to-read,,,,0,0
696238,Proofs from the Book,Martin Aigner,"Aigner, Martin",Günter M. Ziegler,"=""3540404600""","=""9783540404606""",0,4.40,Springer,Hardcover,240,2003,1998,,2024/12/07,"to-read, textbooks","to-read (#575), textbooks (#145)",to-read,,,,0,0
486966,Probability and Computing: Randomized Algorithms and Probabilistic Analysis,Michael Mitzenmacher,"Mitzenmacher, Michael",Eli Upfal,"=""0521835402""","=""9780521835404""",0,4.24,Cambridge University Press,Hardcover,370,2005,2005,,2024/12/07,"to-read, textbooks","to-read (#574), textbooks (#144)",to-read,,,,0,0
6535065,Computational Complexity: A Modern Approach,Sanjeev Arora,"Arora, Sanjeev",Boaz Barak,"=""0521424267""","=""9780521424264""",0,4.31,Cambridge University Press,Hardcover,594,2009,2007,,2024/12/07,"textbooks, to-read","textbooks (#143), to-read (#573)",to-read,,,,0,0
638371,Gravitation,Charles W. Misner,"Misner, Charles W.","Kip S. Thorne, John Archibald Wheeler","=""0716703440""","=""9780716703440""",0,4.37,W. H. Freeman,Paperback,1279,1973,1973,,2024/12/06,"to-read, textbooks","to-read (#572), textbooks (#142)",to-read,,,,0,0
199249408,How to Make a Few Billion Dollars,Brad Jacobs,"Jacobs, Brad",,"=""""","=""9798886451740""",0,3.96,Greenleaf Book Group Press,Hardcover,272,2024,,,2024/12/06,"nonfiction, to-read","nonfiction (#432), to-read (#571)",to-read,,,,0,0
6596,The Four Agreements: A Practical Guide to Personal Freedom,Miguel Ruiz,"Ruiz, Miguel",Janet Mills,"=""1878424505""","=""9781878424501""",0,4.19,Amber-Allen Publishing,Hardcover,152,2001,1997,,2024/12/05,"nonfiction, to-read","nonfiction (#431), to-read (#570)",to-read,,,,0,0
199544680,Original Love: The Four Inns on the Path of Awakening,Henry Shukman,"Shukman, Henry",,"=""0063356120""","=""9780063356122""",0,4.17,HarperOne,Kindle Edition,321,2024,,,2024/12/04,"to-read, philosophy-religion","to-read (#569), philosophy-religion (#103)",to-read,,,,0,0
151719,The House of Belonging,David Whyte,"Whyte, David",,"=""0962152439""","=""9780962152436""",0,4.46,Many Rivers Press,Paperback,98,1997,1996,,2024/12/04,"poetry, to-read","poetry (#29), to-read (#568)",to-read,,,,0,0
24108839,"Consolations: The Solace, Nourishment and Underlying Meaning of Everyday Words",David Whyte,"Whyte, David",,"=""1932887342""","=""9781932887341""",0,4.46,Many Rivers Press,Paperback,245,2014,2014,,2024/12/04,"poetry, to-read","poetry (#28), to-read (#567)",to-read,,,,0,0
38470102,Churchill: Walking with Destiny,Andrew Roberts,"Roberts, Andrew",,"=""0241205638""","=""9780241205631""",0,4.37,Viking,Hardcover,1105,2018,2018,,2024/11/26,"to-read, nonfiction","to-read (#566), nonfiction (#430)",to-read,,,,0,0
116184,You Can Be a Stock Market Genius: Uncover the Secret Hiding Places of Stock Market Profits,Joel Greenblatt,"Greenblatt, Joel",,"=""0684840073""","=""9780684840079""",0,4.22,Touchstone,Paperback,285,1999,1997,,2024/11/24,"to-read, nonfiction","to-read (#565), nonfiction (#429)",to-read,,,,0,0
8662312,Breakthrough Advertising,Eugene M. Schwartz,"Schwartz, Eugene M.",Martin Edelston,"=""0887232981""","=""9780887232985""",0,4.54,Bottom Line Books,Hardcover,236,2004,1966,,2024/11/22,"to-read, nonfiction","to-read (#564), nonfiction (#428)",to-read,,,,0,0
4989687,Who: The A Method for Hiring,Geoff Smart,"Smart, Geoff",Randy Street,"=""0345504194""","=""9780345504197""",0,3.96,Ballantine Books,Hardcover,208,2008,2008,,2024/11/22,"nonfiction, to-read","nonfiction (#427), to-read (#563)",to-read,,,,0,0
54303127,"Richer, Wiser, Happier: How the World's Greatest Investors Win in Markets and Life",William                  Green,"Green, William",,"=""1501164856""","=""9781501164859""",0,4.53,Scribner,Hardcover,304,2021,2021,,2024/11/22,"to-read, nonfiction","to-read (#562), nonfiction (#426)",to-read,,,,0,0
9494221,Computer Vision: Algorithms and Applications (Texts in Computer Science),Richard Szeliski,"Szeliski, Richard",,"=""1848829345""","=""9781848829343""",0,4.20,Springer,Hardcover,832,2010,2010,,2024/11/21,"to-read, textbooks","to-read (#561), textbooks (#141)",to-read,,,,0,0
41957313,Jed Talks #2: Away from the Things of Man,Jed McKenna,"McKenna, Jed",,"=""0997879785""","=""9780997879780""",4,4.55,Wisefool Press,Kindle Edition,238,2018,,2024/01/01,2024/05/12,,,read,,,,1,0
19087989,"Vinland Saga Omnibus, Vol. 1",Makoto Yukimura,"Yukimura, Makoto",,"=""1612626602""","=""9781612626604""",3,4.49,Kodansha Comics,Kindle Edition,460,2013,2006,2024/11/18,2024/11/10,,,read,,,,1,0
1381,The Odyssey,Homer,"Homer, Homer","Robert Fagles, Bernard Knox","=""0143039954""","=""9780143039952""",3,3.82,Penguin Classics ,Paperback,541,2006,-700,2017/01/01,2024/05/14,,,read,,,,1,0
58188742,How to Live: 27 conflicting answers and one weird conclusion,Derek Sivers,"Sivers, Derek",,"=""""","=""""",1,4.19,Hit Media,Hardcover,115,2021,2021,2024/05/27,2024/05/15,,,read,,,,1,0
26030214,"Rick and Morty, Vol. 1",Zac Gorman,"Gorman, Zac","C.J. Cannon, Marc Ellerby","=""1620102811""","=""9781620102817""",2,4.06,Oni Press,Paperback,128,2015,2015,2024/06/12,2024/05/16,,,read,,,,1,0
18135,Romeo and Juliet,William Shakespeare,"Shakespeare, William",,"=""0743477111""","=""9780743477116""",2,3.74,Washington Square Press,Mass Market Paperback,281,2002,1597,2017/01/01,2024/05/12,,,read,,,,1,0
132464,Totem and Taboo,Sigmund Freud,"Freud, Sigmund",James Strachey,"=""041525387X""","=""9780415253871""",0,3.85,Routledge,Paperback,224,2001,1913,,2024/11/19,"to-read, philosophy-religion","to-read (#560), philosophy-religion (#101)",to-read,,,,0,0
337517,Things Hidden Since the Foundation of the World,René Girard,"Girard, René","Stephen Bann, Michael Metteer","=""0804722153""","=""9780804722155""",0,4.25,Stanford University Press,Paperback,470,1987,1978,,2024/11/19,"to-read, philosophy-religion","to-read (#559), philosophy-religion (#102)",to-read,,,,0,0
117031,On War,Carl von Clausewitz,"Clausewitz, Carl von","Michael Eliot Howard, Peter Paret","=""0691018545""","=""9780691018546""",0,3.96,Princeton University Press,Paperback,732,1989,1832,,2024/11/19,"to-read, nonfiction","to-read (#558), nonfiction (#425)",to-read,,,,0,0
1039465,Introduction to Applied Mathematics,Gilbert Strang,"Strang, Gilbert",,"=""0961408804""","=""9780961408800""",0,4.02,Wellesley-Cambridge Press,Hardcover,760,1986,1986,,2024/11/13,"to-read, textbooks","to-read (#557), textbooks (#140)",to-read,,,,0,0
179699,Linear Algebra and Its Applications,Gilbert Strang,"Strang, Gilbert",,"=""0030105676""","=""9780030105678""",0,4.29,Cengage Learning,Hardcover,487,2006,1976,,2024/11/13,"to-read, textbooks","to-read (#556), textbooks (#139)",to-read,,,,0,0
51951268,The Wanderer's Havamal,Jackson  Crawford,"Crawford, Jackson",,"=""1624668429""","=""9781624668425""",3,4.64,"Hackett Publishing Company, Inc.",Hardcover,216,2019,2019,2024/11/11,2024/05/22,,,read,,,,1,0
13425570,How Will You Measure Your Life?,Clayton M. Christensen,"Christensen, Clayton M.","James Allworth, Karen Dillon, Daniela Caggiati","=""0062102427""","=""9780062102423""",0,4.05,Harper Business,Kindle Edition,240,2012,2012,,2024/11/04,"to-read, nonfiction","to-read (#555), nonfiction (#424)",to-read,,,,0,0
649465,Philosophical Essays,Gottfried Wilhelm von Leibniz,"Leibniz, Gottfried Wilhelm von","Roger Ariew, Daniel Garber","=""0872200620""","=""9780872200623""",0,3.91,Hackett Publishing Company,Paperback,366,1989,1716,,2024/11/04,"to-read, philosophy-religion","to-read (#554), philosophy-religion (#99)",to-read,,,,0,0
57147096,"Frieren: Beyond Journey's End, Vol. 1",Kanehito Yamada,"Yamada, Kanehito",Tsukasa Abe,"=""1974725766""","=""9781974725762""",3,4.42,VIZ Media LLC,Paperback,188,2021,2020,2024/10/31,2024/10/19,,,read,,,,1,0
11084145,Steve Jobs,Walter Isaacson,"Isaacson, Walter",,"=""1451648537""","=""9781451648539""",3,4.15,Simon & Schuster,Hardcover,630,2011,2011,2024/06/07,2024/05/12,,,read,,,,1,0
9532,"Ender's Shadow (The Shadow Series, #1)",Orson Scott Card,"Card, Orson Scott",,"=""0765342405""","=""9780765342409""",4,4.32,Starscape,Paperback,469,2002,1999,2023/01/01,2024/05/12,,,read,,,,1,0
51526,"Too Soon Old, Too Late Smart: Thirty True Things You Need to Know Now",Gordon Livingston,"Livingston, Gordon",Elizabeth Edwards,"=""1569244197""","=""9781606710111""",4,3.81,Marlowe & Company,Hardcover,169,2004,2004,2024/01/01,2024/05/12,,,read,,,,1,0
67896,Tao Te Ching,Lao Tzu,"Tzu, Lao","Gia-Fu Feng, Jane English, Jacob Needleman, Toinette Lippe, Claudio Lamparelli","=""0679724346""","=""9780679724346""",3,4.29,Vintage,Paperback,107,1989,-350,2024/01/01,2024/05/12,philosophy-religion,philosophy-religion (#97),read,,,,1,0
687619,Practical Electronics for Inventors 2/E,Paul Scherz,"Scherz, Paul",,"=""0071452818""","=""9780071452816""",0,4.38,McGraw-Hill/TAB Electronics,Paperback,952,2006,1998,,2024/09/21,"to-read, textbooks","to-read (#553), textbooks (#138)",to-read,,,,0,0
90229,"My Early Life, 1874-1904",Winston S. Churchill,"Churchill, Winston S.",,"=""0684823454""","=""9780684823454""",0,4.26,Scribner,Paperback,396,1996,1930,,2024/08/16,"to-read, nonfiction","to-read (#552), nonfiction (#423)",to-read,,,,0,0
14744397,Generative Energy: Protecting and Restoring the Wholeness of Life,Raymond Peat,"Peat, Raymond",,"=""""","=""""",0,4.43,,Paperback,151,1994,1994,,2024/08/12,"nonfiction, to-read","nonfiction (#422), to-read (#551)",to-read,,,,0,0
94318,Awareness: The Perils and Opportunities of Reality,Anthony de Mello,"Mello, Anthony de",J. Francis Stroud,"=""0385249373""","=""9780385249379""",0,4.29,Image,Paperback,184,1992,1990,,2024/05/12,"to-read, philosophy-religion","to-read (#37), philosophy-religion (#85)",to-read,,,,0,0
138878,The Way to Love: The Last Meditations of Anthony de Mello,Anthony de Mello,"Mello, Anthony de",,"=""038524939X""","=""9780385249393""",0,4.29,Image,Paperback,196,1995,1991,,2024/05/12,"to-read, philosophy-religion","to-read (#38), philosophy-religion (#84)",to-read,,,,0,0
61550,The Logic of Scientific Discovery,Karl Popper,"Popper, Karl",,"=""0415278449""","=""9780415278447""",0,4.03,Routledge,Paperback,544,2002,1934,,2024/05/12,"to-read, philosophy-religion","to-read (#42), philosophy-religion (#83)",to-read,,,,0,0
7886338,The Lifecycle of Software Objects,Ted Chiang,"Chiang, Ted",,"=""1596063173""","=""9781596063174""",0,3.92,Subterranean Pr,Hardcover,150,2010,2010,,2024/05/13,"to-read, fiction","to-read (#49), fiction (#41)",to-read,,,,0,0
41047832,"Direct Truth: Uncompromising, non-prescriptive Truths to the enduring questions of life",Kapil Gupta,"Gupta, Kapil",,"=""1724334417""","=""9781724334411""",0,4.39,CreateSpace Independent Publishing Platform,Paperback,152,2018,,,2024/05/14,"to-read, philosophy-religion","to-read (#73), philosophy-religion (#82)",to-read,,,,0,0
13470,Think on These Things,J. Krishnamurti,"Krishnamurti, J.",,"=""0060916095""","=""9780060916091""",0,4.24,HarperOne,Paperback,258,1989,1964,,2024/05/16,"to-read, philosophy-religion","to-read (#111), philosophy-religion (#81)",to-read,,,,0,0
19506,"The World as Will and Representation, Volume I",Arthur Schopenhauer,"Schopenhauer, Arthur",E.F.J. Payne,"=""0486217612""","=""9780486217611""",0,4.22,Dover Publications,Paperback,534,2000,1818,,2024/05/19,"to-read, philosophy-religion","to-read (#180), philosophy-religion (#79)",to-read,,,,0,0
6707021,Ashtavakra Gita,Chinmayananda,"Chinmayananda, Chinmayananda",,"=""""","=""""",0,4.52,Chinmaya Publications,Paperback,288,,2007,,2024/05/19,"to-read, philosophy-religion","to-read (#185), philosophy-religion (#78)",to-read,,,,0,0
60560,The Tao of Philosophy: The Edited Transcripts (The Love of Wisdom Library),Alan W. Watts,"Watts, Alan W.",,"=""0804832048""","=""9780804832045""",0,4.08,Tuttle Publishing,Paperback,96,1999,1995,,2024/05/20,"to-read, philosophy-religion","to-read (#193), philosophy-religion (#77)",to-read,,,,0,0
143877,Freedom from the Known,J. Krishnamurti,"Krishnamurti, J.",Mary Lutyens,"=""0060648082""","=""9780060648084""",0,4.29,HarperOne ,Paperback,124,2009,1969,,2024/05/20,"to-read, philosophy-religion","to-read (#206), philosophy-religion (#76)",to-read,,,,0,0
13445912,The Golden Verses of Pythagoras,Pythagoras,"Pythagoras, Pythagoras","Hierocles of Alexandria, Antoine Fabre d'Olivet","=""""","=""""",0,4.19,,Kindle Edition,288,2008,1917,,2024/05/22,"to-read, philosophy-religion","to-read (#225), philosophy-religion (#75)",to-read,,,,0,0
97412,On the Shortness of Life: Life Is Long if You Know How to Use It (Penguin Great Ideas),Seneca,"Seneca, Seneca",C.D.N. Costa,"=""0143036327""","=""9780143036326""",0,4.17,Penguin Books,Paperback,106,2005,49,,2024/05/22,"to-read, philosophy-religion","to-read (#218), philosophy-religion (#74)",to-read,,,,0,0
1182117,The Diamond Sutra and The Sutra of Hui-Neng,Gautama Buddha,"Buddha, Gautama","Hui-Neng, A.F. Price","=""0877730059""","=""9780877730057""",0,4.33,Shambhala,Paperback,168,1990,1969,,2024/05/22,"to-read, philosophy-religion","to-read (#227), philosophy-religion (#73)",to-read,,,,0,0
325115,The Heart Sutra,Anonymous,"Anonymous, Anonymous",Red Pine,"=""1593760825""","=""9781593760823""",0,4.37,Counterpoint,Paperback,201,2005,2001,,2024/05/22,"to-read, philosophy-religion","to-read (#229), philosophy-religion (#72)",to-read,,,,0,0
31837,The Consolation of Philosophy,Boethius,"Boethius, Boethius",Victor  Watts,"=""0140447806""","=""9780140447804""",0,4.04,Penguin Classics,Paperback,155,1999,524,,2024/05/22,"to-read, philosophy-religion","to-read (#230), philosophy-religion (#71)",to-read,,,,0,0
1320182,The Vimalakirti Nirdesa Sutra,Charles Luk,"Luk, Charles",,"=""0877730725""","=""9780877730729""",0,4.12,Shambhala,Paperback,162,1990,100,,2024/05/22,"to-read, philosophy-religion","to-read (#233), philosophy-religion (#70)",to-read,,,,0,0
571119,A Guide to the Bodhisattva Way of Life,Śāntideva,"Śāntideva, Śāntideva","Vesna A. Wallace, B. Alan Wallace","=""1559390611""","=""9781559390613""",0,4.26,Snow Lion,Paperback,152,1997,700,,2024/05/22,"to-read, philosophy-religion","to-read (#234), philosophy-religion (#69)",to-read,,,,0,0
11041525,Musonius Rufus: Lectures and Sayings,Musonius Rufus,"Rufus, Musonius","William B. Irvine, Cynthia King","=""145645966X""","=""9781456459666""",0,4.07,CreateSpace Independent Publishing Platform,Paperback,102,2011,80,,2024/05/22,"to-read, philosophy-religion","to-read (#235), philosophy-religion (#68)",to-read,,,,0,0
24658,The Prose Edda: Norse Mythology,Snorri Sturluson,"Sturluson, Snorri",Jesse L. Byock,"=""0140447555""","=""9780140447552""",0,4.15,Penguin Books,Paperback,224,2005,1220,,2024/05/22,"to-read, philosophy-religion","to-read (#240), philosophy-religion (#67)",to-read,,,,0,0
6454477,The Red Book: Liber Novus,C.G. Jung,"Jung, C.G.","Sonu Shamdasani, Mark Kyburz, John Peck, Ulrich Hoerni","=""0393065677""","=""9780393065671""",0,4.49,W. W. Norton & Company,Hardcover,371,2009,2009,,2024/05/23,"to-read, philosophy-religion","to-read (#245), philosophy-religion (#66)",to-read,,,,0,0
44936,Refactoring: Improving the Design of Existing Code,Martin Fowler,"Fowler, Martin","Kent Beck, Don Roberts, Erich Gamma","=""0201485672""","=""9780201485677""",0,4.24,Addison-Wesley Professional,Hardcover,431,1999,1999,,2024/05/28,"to-read, textbooks","to-read (#378), textbooks (#136)",to-read,,,,0,0
10616517,Art of War and Thirty-Six Stratagems,Sun Tzu,"Tzu, Sun",,"=""7807362197""","=""9787807362197""",4,4.14,,Paperback,306,2007,2002,,2024/05/28,"to-read, philosophy-religion","to-read (#382), philosophy-religion (#65)",to-read,,,,0,0
528899,The Dialogues of Plato,Plato,"Plato, Plato",Erich Segal,"=""0553213717""","=""9780553213713""",0,4.14,Bantam Classic,Mass Market Paperback,340,2006,-380,,2024/05/31,"to-read, philosophy-religion","to-read (#412), philosophy-religion (#64)",to-read,,,,0,0
144355,Sceptical Essays (Routledge Classics),Bertrand Russell,"Russell, Bertrand",John   Gray,"=""0415325080""","=""9780415325080""",0,4.12,Routledge,Paperback,240,2021,1928,,2024/06/01,"to-read, philosophy-religion","to-read (#431), philosophy-religion (#62)",to-read,,,,0,0
367802,Collected Poems,Dylan Thomas,"Thomas, Dylan",,"=""0811202054""","=""9780811202053""",0,4.20,New Directions,Paperback,203,1971,1952,,2024/06/01,"to-read, poetry","to-read (#434), poetry (#27)",to-read,,,,0,0
597677,The Constitution of the United States with the Declaration of Independence and the Articles of Confederation,Founding Fathers,"Fathers, Founding","James Madison, Thomas Jefferson, R.B. Bernstein","=""076072833X""","=""9780760728338""",0,4.60,Barnes & Noble Books,Hardcover,110,2002,2002,,2024/06/01,"to-read, philosophy-religion","to-read (#449), philosophy-religion (#61)",to-read,,,,0,0
5988,The Selected Poems of Li Po,Li Po,"Po, Li",David  Hinton,"=""0856462918""","=""9780856462917""",0,4.27,Anvil Press Poetry,Paperback,160,1998,762,,2024/06/03,"to-read, poetry","to-read (#461), poetry (#26)",to-read,,,,0,0
13414919,"Sky Above, Great Wind: The Life and Poetry of Zen Master Ryokan",Ryōkan,"Ryōkan, Ryōkan",Kazuaki Tanahashi,"=""1590309820""","=""9781590309827""",0,4.11,Shambhala,Paperback,224,2012,1830,,2024/06/03,"to-read, poetry","to-read (#460), poetry (#25)",to-read,,,,0,0
138134,The Complete Poems,John Keats,"Keats, John",,"=""0679601082""","=""9780679601081""",0,4.25,Modern Library,Hardcover,416,1994,1820,,2024/06/07,"to-read, poetry","to-read (#475), poetry (#24)",to-read,,,,0,0
111879,Collected Poems,Philip Larkin,"Larkin, Philip",Anthony Thwaite,"=""0374529205""","=""9780374529208""",0,4.21,"Farrar, Straus and Giroux",Paperback,218,2004,1988,,2024/06/07,"to-read, poetry","to-read (#482), poetry (#23)",to-read,,,,0,0
41597,The Non-Designer's Design Book,Robin P. Williams,"Williams, Robin P.",,"=""0321193857""","=""9780321193858""",0,4.10,Peachpit Pr,Paperback,200,2004,2011,,2024/06/09,"to-read, textbooks","to-read (#501), textbooks (#135)",to-read,,,,0,0
89220,The Complete Poems,Catullus,"Catullus, Catullus",Guy Lee,"=""0192835874""","=""9780192835871""",0,4.10,Oxford University Press,Paperback,195,1998,-60,,2024/06/09,"to-read, poetry","to-read (#506), poetry (#22)",to-read,,,,0,0
168814,Keys to Drawing,Bert Dodson,"Dodson, Bert",,"=""0891343377""","=""9780891343370""",0,4.07,North Light Books,Paperback,224,1990,1985,,2024/06/10,"to-read, textbooks","to-read (#522), textbooks (#134)",to-read,,,,0,0
23520,The Complete World of Greek Mythology,Richard Buxton,"Buxton, Richard",,"=""0500251215""","=""9780500251218""",0,4.24,Thames & Hudson,Hardcover,256,2004,2004,,2024/06/19,"to-read, philosophy-religion","to-read (#538), philosophy-religion (#59)",to-read,,,,0,0
158770,Three Kingdoms (4-Volume Boxed Set),Luo Guanzhong,"Guanzhong, Luo",Moss Roberts,"=""7119005901""","=""9787119005904""",0,4.37,Foreign Languages Press,Paperback,2339,2005,1522,,2024/05/22,"to-read, fiction","to-read (#241), fiction (#40)",to-read,,,,0,0
158778,Outlaws of the Marsh (4-Volume Boxed Set),Shi Nai'an,"Nai'an, Shi","Luo Guanzhong, Sidney Shapiro","=""7119016628""","=""9787119016627""",0,4.12,Foreign Languages Press,Paperback,2149,2023,1370,,2024/05/22,"to-read, fiction","to-read (#242), fiction (#39)",to-read,,,,0,0
739064,The Flower Ornament Scripture: A Translation of the Avatamsaka Sutra,Thomas Cleary,"Cleary, Thomas",,"=""0877739404""","=""9780877739401""",0,4.41,Shambhala,Hardcover,1656,1993,1993,,2024/05/22,"to-read, philosophy-religion","to-read (#232), philosophy-religion (#58)",to-read,,,,0,0
119239,Selected Poems,Lord Byron,"Byron, Lord","Susan J. Wolfson, Peter J. Manning","=""0140424504""","=""9780140424508""",0,4.06,Penguin Classics,Paperback,864,2006,1848,,2024/06/07,"to-read, poetry","to-read (#483), poetry (#21)",to-read,,,,0,0
115998,"Caesar and Christ (Story of Civilization, #3)",Will Durant,"Durant, Will",,"=""0671115006""","=""9780671115005""",0,4.40,Simon & Schuster,Hardcover,752,1980,1944,,2024/05/25,"to-read, nonfiction","to-read (#337), nonfiction (#421)",to-read,,,,0,0
133906,The Collected Poems,Langston Hughes,"Hughes, Langston",Arnold Rampersad,"=""0679764089""","=""9780679764083""",0,4.36,Vintage Books/Random House,Paperback,736,1995,1994,,2024/06/07,"to-read, poetry","to-read (#476), poetry (#20)",to-read,,,,0,0
31795,The Story of Philosophy: The Lives and Opinions of the World's Greatest Philosophers,Will Durant,"Durant, Will",,"=""0671739166""","=""9780671739164""",0,4.15,Pocket Books,Paperback,704,1991,1926,,2024/05/14,"to-read, philosophy-religion","to-read (#92), philosophy-religion (#55)",to-read,,,,0,0
26252,The Enneads,Plotinus,"Plotinus, Plotinus","John Dillon, Stephan MacKenna","=""014044520X""","=""9780140445206""",0,4.07,Penguin Classics,Paperback,688,1991,250,,2024/05/22,"to-read, fiction","to-read (#226), fiction (#38)",to-read,,,,0,0
1016006,The Value of Science: Essential Writings of Henri Poincare (Modern Library Science),Henri Poincaré,"Poincaré, Henri",,"=""0375758488""","=""9780375758485""",0,4.23,Random House Publishing Group,Paperback,608,2001,1905,,2024/05/23,"to-read, philosophy-religion","to-read (#275), philosophy-religion (#54)",to-read,,,,0,0
61554,Conjectures and Refutations: The Growth of Scientific Knowledge (Routledge Classics),Karl Popper,"Popper, Karl",,"=""0415285941""","=""9780415285940""",0,4.19,Routledge,Paperback,608,2002,1963,,2024/05/25,"to-read, philosophy-religion","to-read (#346), philosophy-religion (#53)",to-read,,,,0,0
36166009,The Federalist Papers,Alexander Hamilton,"Hamilton, Alexander","James Madison, John Jay","=""1542099420""","=""9781542099424""",0,4.10,AmazonClassics,Kindle Edition,592,2017,1788,,2024/05/19,"to-read, philosophy-religion","to-read (#168), philosophy-religion (#52)",to-read,,,,0,0
75504,The Collected Poems,Wallace Stevens,"Stevens, Wallace",,"=""0679726691""","=""9780679726692""",0,4.27,Vintage,Paperback,560,1990,1954,,2024/06/07,"to-read, poetry","to-read (#480), poetry (#18)",to-read,,,,0,0
67890,The Archetypes and the Collective Unconscious (Collected Works 9i),C.G. Jung,"Jung, C.G.","Michael Fordham, Herbert Read, R.F.C. Hull","=""0691097615""","=""9780691097619""",0,4.30,Princeton University Press (NJ),Hardcover,550,1969,1959,,2024/05/30,"to-read, philosophy-religion","to-read (#389), philosophy-religion (#51)",to-read,,,,0,0
141152,Ramayana,Vālmīki,"Vālmīki, Vālmīki","William Buck, B.A. van Nooten, Shirley Triest","=""0520227034""","=""9780520227033""",0,4.19,University of California Press,Paperback,461,1976,-400,,2024/05/22,"to-read, fiction","to-read (#236), fiction (#37)",to-read,,,,0,0
2279118,"The Holy Vedas (Rig Veda, Yajur Veda, Sama Veda, Atharva Veda)",Bibek Debroy,"Debroy, Bibek",Dipavali Debroy,"=""8176465291""","=""9788176465298""",0,4.15,B.R. Publishing Corporation,Hardcover,450,2006,1994,,2024/05/22,"to-read, philosophy-religion","to-read (#237), philosophy-religion (#49)",to-read,,,,0,0
123471,I Am a Strange Loop,Douglas R. Hofstadter,"Hofstadter, Douglas R.",,"=""0465030785""","=""9780465030781""",0,3.96,Basic Books,Hardcover,436,2007,2007,,2024/05/25,"to-read, philosophy-religion","to-read (#347), philosophy-religion (#48)",to-read,,,,0,0
80311,A Treatise of Human Nature,David Hume,"Hume, David",,"=""1406927554""","=""9781406927559""",0,3.95,Hard Press,Paperback,434,2006,1739,,2024/05/18,"to-read, philosophy-religion","to-read (#149), philosophy-religion (#47)",to-read,,,,0,0
672602,The Book of Songs: The Ancient Chinese Classic of Poetry,Arthur Waley,"Waley, Arthur","Joseph R. Allen, Stephen Owen","=""0802134777""","=""9780802134776""",0,3.97,Grove,Paperback,400,1996,-600,,2024/05/22,"to-read, poetry","to-read (#224), poetry (#17)",to-read,,,,0,0
143880,The Book of Life: Daily Meditations with Krishnamurti,J. Krishnamurti,"Krishnamurti, J.",,"=""0060648791""","=""9780060648794""",0,4.33,HarperOne,Paperback,400,1995,1995,,2024/05/12,"to-read, philosophy-religion","to-read (#39), philosophy-religion (#46)",to-read,,,,0,0
767642,The Lotus Sutra,Anonymous,"Anonymous, Anonymous",Burton Watson,"=""0231081618""","=""9780231081610""",0,4.25,Columbia University Press,Paperback,390,1993,150,,2024/05/22,"to-read, philosophy-religion","to-read (#231), philosophy-religion (#45)",to-read,,,,0,0
745292,Philosophical Writings of Peirce,Charles Sanders Peirce,"Peirce, Charles Sanders",Justus Buchler,"=""0486202178""","=""9780486202174""",0,4.19,Dover Publications,Paperback,386,2011,1955,,2024/05/26,"to-read, philosophy-religion","to-read (#349), philosophy-religion (#44)",to-read,,,,0,0
25700,The Theory of Moral Sentiments,Adam Smith,"Smith, Adam",,"=""0486452913""","=""9780486452913""",0,4.07,Dover Publications,Paperback,368,2006,1759,,2024/05/23,"to-read, philosophy-religion","to-read (#273), philosophy-religion (#43)",to-read,,,,0,0
46201,The Selected Poetry of Rainer Maria Rilke,Rainer Maria Rilke,"Rilke, Rainer Maria","Stephen Mitchell, Robert Hass","=""0679722017""","=""9780679722014""",0,4.37,Vintage,Paperback,356,1989,1926,,2024/06/09,"to-read, poetry","to-read (#503), poetry (#16)",to-read,,,,0,0
127227,The Human Condition,Hannah Arendt,"Arendt, Hannah",Margaret Canovan,"=""0226025985""","=""9780226025988""",0,4.20,The University of Chicago Press,Paperback,349,1998,1958,,2024/05/23,"to-read, philosophy-religion","to-read (#268), philosophy-religion (#41)",to-read,,,,0,0
640565,The Book of Chuang Tzu,Zhuangzi,"Zhuangzi, Zhuangzi","Burton Watson, Martin Palmer, Elizabeth Breuilly","=""0140194886""","=""9780140194883""",0,4.35,Arkana,Paperback,320,1996,-350,,2024/05/19,"to-read, philosophy-religion","to-read (#170), philosophy-religion (#39)",to-read,,,,0,0
13235656,The Lankavatara Sutra: Translation and Commentary,Red Pine,"Pine, Red",,"=""1582437912""","=""9781582437910""",0,4.28,Counterpoint,Hardcover,320,2012,2012,,2024/05/22,"to-read, philosophy-religion","to-read (#228), philosophy-religion (#38)",to-read,,,,0,0
18681073,The Yoga Sutras of Patanjali: Commentary on the Raja Yoga Sutras by Sri Swami Satchidananda,Satchidananda,"Satchidananda, Satchidananda",,"=""0932040969""","=""9780932040961""",0,4.38,Integral Yoga Publications,Kindle Edition,313,2012,400,,2024/05/22,"to-read, philosophy-religion","to-read (#221), philosophy-religion (#37)",to-read,,,,0,0
132153,"The Sayings of the Desert Fathers: The Alphabetical Collection (Cistercian Studies, #59)",Benedicta Ward,"Ward, Benedicta",Metropolitan Anthony,"=""0879079592""","=""9780879079598""",0,4.31,Liturgical Press,Paperback,312,1984,1975,,2024/05/22,"to-read, philosophy-religion","to-read (#238), philosophy-religion (#36)",to-read,,,,0,0
208657,Theological-Political Treatise,Baruch Spinoza,"Spinoza, Baruch","Samuel Shirley, Seymour Feldman, I. Firu","=""0872206076""","=""9780872206076""",0,4.08,"Hackett Publishing Company, Inc.",Paperback,312,2001,1670,,2024/06/01,"to-read, philosophy-religion","to-read (#447), philosophy-religion (#35)",to-read,,,,0,0
100237,Monkey: The Journey to the West,Wu Cheng'en,"Cheng'en, Wu","Arthur Waley, Hu Shih","=""0802130860""","=""9780802130860""",0,4.04,Evergreen Books by Grove Weidenfeld,Paperback,306,1994,1592,,2024/05/22,"to-read, fiction","to-read (#243), fiction (#35)",to-read,,,,0,0
156783,Axiomatic,Greg Egan,"Egan, Greg",,"=""0061052655""","=""9780061052651""",0,4.27,HarperPrism,Paperback,293,1997,1995,,2024/05/27,"to-read, fiction","to-read (#361), fiction (#34)",to-read,,,,0,0
64710,The First and Last Freedom,J. Krishnamurti,"Krishnamurti, J.",Aldous Huxley,"=""0060648317""","=""9780060648312""",0,4.23,Harper & Row,Paperback,288,1975,1954,,2024/05/20,"to-read, philosophy-religion","to-read (#205), philosophy-religion (#32)",to-read,,,,0,0
420278,The Complete Poems 1927-1979,Elizabeth Bishop,"Bishop, Elizabeth",,"=""0374518173""","=""9780374518172""",0,4.21,"Farrar, Straus and Giroux",Paperback,287,1984,1980,,2024/06/07,"to-read, poetry","to-read (#469), poetry (#14)",to-read,,,,0,0
1028273,Hsin Hsin Ming: The Book of Nothing,Bhagwan Shree Rajneesh,"Rajneesh, Bhagwan Shree",,"=""0880505974""","=""9780880505970""",0,4.39,Rajneesh Foundation Intl,Paperback,284,1983,1983,,2024/05/19,"to-read, philosophy-religion","to-read (#187), philosophy-religion (#31)",to-read,,,,0,0
15944480,The Orphic Hymns,Orpheus,"Orpheus, Orpheus","Apostolos N. Athanassakis, Benjamin M. Wolkow","=""1421408821""","=""9781421408828""",0,4.38,Johns Hopkins University Press,Paperback,280,2013,300,,2024/05/22,"to-read, poetry","to-read (#223), poetry (#13)",to-read,,,,0,0
4143812,Discourses and Selected Writings,Epictetus,"Epictetus, Epictetus",Robert Dobbin,"=""0140449469""","=""9780140449464""",0,4.41,Penguin Books,Paperback,276,2008,108,,2024/05/22,"to-read, philosophy-religion","to-read (#220), philosophy-religion (#29)",to-read,,,,0,0
828107,Shibumi,Trevanian,"Trevanian, Trevanian",,"=""0345311809""","=""9780345311801""",0,4.18,Ballantine Books,Mass Market Paperback,440,1983,1979,,2024/05/20,"to-read, fiction","to-read (#212), fiction (#33)",to-read,,,,0,0
295000,Cutting Through Spiritual Materialism,Chögyam Trungpa,"Trungpa, Chögyam",,"=""1570629579""","=""9781570629570""",0,4.22,Shambhala,Paperback,272,2002,1973,,2024/06/01,"to-read, philosophy-religion","to-read (#435), philosophy-religion (#28)",to-read,,,,0,0
205218,Ethics,Baruch Spinoza,"Spinoza, Baruch","Stuart Hampshire, Edwin M. Curley","=""0140435719""","=""9780140435719""",0,4.11,Penguin Classics,Paperback,186,2005,1677,,2024/05/23,"to-read, philosophy-religion","to-read (#261), philosophy-religion (#27)",to-read,,,,0,0
1005781,The Phenomenology of Mind (Philosophical Classics),Georg Wilhelm Friedrich Hegel,"Hegel, Georg Wilhelm Friedrich",J.B. Baillie,"=""0486432513""","=""9780486432519""",0,3.96,Dover Publications,Paperback,528,2003,1807,,2024/06/01,"to-read, philosophy-religion","to-read (#450), philosophy-religion (#26)",to-read,,,,0,0
80410,Four Quartets,T.S. Eliot,"Eliot, T.S.",,"=""0571068944""","=""9780571068944""",0,4.37,Faber & Faber,Paperback,56,2001,1943,,2024/06/03,"to-read, poetry","to-read (#462), poetry (#12)",to-read,,,,0,0
8837,"Wind, Sand and Stars",Antoine de Saint-Exupéry,"Saint-Exupéry, Antoine de",Lewis Galantière,"=""0156027496""","=""9780156027496""",0,4.12,Mariner Books Classics,Paperback,229,2002,1939,,2024/05/16,"to-read, fiction","to-read (#114), fiction (#32)",to-read,,,,0,0
123845,Self-Reliance and Other Essays (Dover Thrift Editions: Philosophy),Ralph Waldo Emerson,"Emerson, Ralph Waldo",,"=""0486277909""","=""9780486277905""",0,4.12,Dover Publications,Paperback,117,1993,1844,,2024/05/19,"to-read, philosophy-religion","to-read (#157), philosophy-religion (#25)",to-read,,,,0,0
12075,Tractatus Logico-Philosophicus,Ludwig Wittgenstein,"Wittgenstein, Ludwig","David Pears, Brian McGuinness, Bertrand Russell","=""0415254086""","=""9780415254083""",0,4.10,Routledge Classics,Paperback,142,2001,1921,,2024/05/17,"to-read, philosophy-religion","to-read (#129), philosophy-religion (#24)",to-read,,,,0,0
30735,The Complete Essays,Michel de Montaigne,"Montaigne, Michel de",M.A. Screech,"=""0140446044""","=""9780140446043""",0,4.23,Penguin Classics,Paperback,1344,1993,1580,,2024/05/20,"to-read, philosophy-religion","to-read (#195), philosophy-religion (#23)",to-read,,,,0,0
130119,An Enquiry Concerning Human Understanding,David Hume,"Hume, David",,"=""1420926993""","=""9781420926996""",0,3.94,Digireads.Com,Paperback,96,2006,1748,,2024/05/18,"to-read, philosophy-religion","to-read (#148), philosophy-religion (#22)",to-read,,,,0,0
4948826,Sum: Forty Tales from the Afterlives,David Eagleman,"Eagleman, David",,"=""0307377342""","=""9780307377340""",0,4.12,Pantheon,Hardcover,110,2009,2009,,2024/05/28,"to-read, fiction","to-read (#376), fiction (#31)",to-read,,,,0,0
551520,The Wisdom of Insecurity: A Message for an Age of Anxiety,Alan W. Watts,"Watts, Alan W.",,"=""0394704681""","=""9780394704685""",0,4.15,Vintage,Paperback,152,1968,1951,,2024/05/12,"to-read, philosophy-religion","to-read (#46), philosophy-religion (#21)",to-read,,,,0,0
16619,Democracy in America,Alexis de Tocqueville,"Tocqueville, Alexis de","Isaac Kramnick, Gerald Bevan","=""0140447601""","=""9780140447606""",0,4.05,Penguin Classics,Paperback,983,2003,1835,,2024/06/01,"to-read, philosophy-religion","to-read (#452), philosophy-religion (#20)",to-read,,,,0,0
24965,Fear and Trembling,Søren Kierkegaard,"Kierkegaard, Søren",Alastair Hannay,"=""0143037579""","=""9780143037576""",0,4.00,Penguin Books,Paperback,152,2006,1843,,2024/06/01,"to-read, philosophy-religion","to-read (#453), philosophy-religion (#19)",to-read,,,,0,0
24618,"The Art of Living: The Classical Manual on Virtue, Happiness and Effectiveness",Epictetus,"Epictetus, Epictetus",Sharon Lebell,"=""006251346X""","=""9780062513465""",0,4.25,HarperOne,Paperback,128,2004,125,,2024/05/22,"to-read, philosophy-religion","to-read (#219), philosophy-religion (#18)",to-read,,,,0,0
159964,The Dhammapada,Anonymous,"Anonymous, Anonymous","Thich Nhat Hanh, Ananda Maitreya, Viggo Fausbll","=""0938077872""","=""9780938077879""",0,4.27,Parallax Press,Paperback,114,2001,-400,,2024/05/22,"to-read, philosophy-religion","to-read (#239), philosophy-religion (#17)",to-read,,,,0,0
76889,100 Selected Poems,E.E. Cummings,"Cummings, E.E.",,"=""0802130720""","=""9780802130723""",0,4.29,Grove Press,Paperback,121,1994,1923,,2024/06/07,"to-read, poetry","to-read (#466), poetry (#11)",to-read,,,,0,0
173666,Radical Acceptance: Embracing Your Life With the Heart of a Buddha,Tara Brach,"Brach, Tara",,"=""""","=""""",0,4.16,Bantam,Paperback,333,2004,2000,,2024/05/12,"to-read, philosophy-religion","to-read (#45), philosophy-religion (#16)",to-read,,,,0,0
80449,On the Genealogy of Morals,Friedrich Nietzsche,"Nietzsche, Friedrich",Douglas Smith,"=""019283617X""","=""9780192836175""",0,4.13,Oxford University Press,Paperback,208,1999,1887,,2024/05/31,"to-read, philosophy-religion","to-read (#406), philosophy-religion (#15)",to-read,,,,0,0
24885533,The Paper Menagerie and Other Stories,Ken Liu,"Liu, Ken",,"=""1481442546""","=""9781481442541""",0,4.36,Gallery / Saga Press,Hardcover,450,2016,2016,,2024/05/13,"to-read, fiction","to-read (#50), fiction (#30)",to-read,,,,0,0
385228,On Liberty,John Stuart Mill,"Mill, John Stuart",,"=""""","=""""",0,3.96,Penguin Classics,Paperback,187,1985,1859,,2024/05/19,"to-read, philosophy-religion","to-read (#162), philosophy-religion (#14)",to-read,,,,0,0
16634,The Glass Bead Game,Hermann Hesse,"Hesse, Hermann","Richard Winston, Clara Winston, Theodore Ziolkowski","=""0312278497""","=""9780312278496""",0,4.10,Holt Paperbacks,Paperback,558,1998,1943,,2024/05/27,"to-read, fiction","to-read (#365), fiction (#29)",to-read,,,,0,0
41580312,Be Here Now,Ram Dass,"Dass, Ram",,"=""""","=""""",0,4.34,HarperOne,Kindle Edition,116,2010,1971,,2024/05/12,"to-read, philosophy-religion","to-read (#29), philosophy-religion (#13)",to-read,,,,0,0
53022,The Collected Poems of W.B. Yeats,W.B. Yeats,"Yeats, W.B.",Richard J. Finneran,"=""0684807319""","=""9780684807317""",0,4.23,Scribner,Paperback,544,1996,1933,,2024/06/07,"to-read, poetry","to-read (#468), poetry (#10)",to-read,,,,0,0
243685,A History of Western Philosophy,Bertrand Russell,"Russell, Bertrand",,"=""0671201581""","=""9780671201586""",0,4.13,Simon & Schuster,Paperback,906,1986,1945,,2024/05/25,"to-read, philosophy-religion","to-read (#285), philosophy-religion (#12)",to-read,,,,0,0
588138,The Hero With a Thousand Faces,Joseph Campbell,"Campbell, Joseph",,"=""0691017840""","=""9780691017846""",0,4.13,Princeton University Press,Paperback,416,1972,1949,,2024/05/27,"to-read, philosophy-religion","to-read (#369), philosophy-religion (#10)",to-read,,,,0,0
97411,Letters from a Stoic,Seneca,"Seneca, Seneca",,"=""0140442103""","=""9780140442106""",0,4.34,Penguin Books,Paperback,254,2004,64,,2024/05/12,"to-read, philosophy-religion","to-read (#33), philosophy-religion (#9)",to-read,,,,0,0
2078076,The Collected Poems,Sylvia Plath,"Plath, Sylvia",,"=""""","=""""",0,4.25,Harper Perennial Modern Classics,Paperback,384,2018,1981,,2024/06/07,"to-read, poetry","to-read (#481), poetry (#8)",to-read,,,,0,0
402843,"Zen Mind, Beginner's Mind: Informal Talks on Zen Meditation and Practice",Shunryu Suzuki,"Suzuki, Shunryu","Trudy Dixon, Huston Smith, Richard Baker","=""0834800799""","=""9780834800793""",0,4.22,Weatherhill,Paperback,138,1970,1970,,2024/05/14,"to-read, philosophy-religion","to-read (#75), philosophy-religion (#8)",to-read,,,,0,0
171547,Songs of Innocence and of Experience,William Blake,"Blake, William",,"=""1420925806""","=""9781420925807""",0,4.09,Digireads.com,Paperback,56,2005,1794,,2024/06/07,"to-read, poetry","to-read (#470), poetry (#7)",to-read,,,,0,0
95819,The Poetry of Robert Frost,Robert Frost,"Frost, Robert","Edward Connery Lathem, Edward Connery Latham","=""0805005013""","=""9780805005011""",0,4.24,Henry Holt & Company,Paperback,607,1979,1969,,2024/06/07,"to-read, poetry","to-read (#477), poetry (#6)",to-read,,,,0,0
19068,The Nicomachean Ethics,Aristotle,"Aristotle, Aristotle","Hugh Tredennick, J.A.K. Thomson, Jonathan Barnes","=""0140449493""","=""9780140449495""",0,4.00,Penguin Classics,Paperback,329,2004,-350,,2024/05/18,"to-read, philosophy-religion","to-read (#150), philosophy-religion (#7)",to-read,,,,0,0
53639,Zorba the Greek,Nikos Kazantzakis,"Kazantzakis, Nikos",,"=""0571203132""","=""9780571203130""",0,4.04,Faber & Faber Ltd,Paperback,335,2001,1946,,2024/05/27,"to-read, fiction","to-read (#371), fiction (#28)",to-read,,,,0,0
29946,Illusions: The Adventures of a Reluctant Messiah,Richard Bach,"Bach, Richard",,"=""""","=""""",0,4.15,Arrow Books,Paperback,144,2001,1977,,2024/05/16,"to-read, fiction","to-read (#118), fiction (#27)",to-read,,,,0,0
91950,The Myth of Sisyphus,Albert Camus,"Camus, Albert",Justin Obrien,"=""0141182008""","=""9780141182001""",0,4.18,Penguin Classics,Paperback,192,2013,1942,,2024/05/18,"to-read, philosophy-religion","to-read (#145), philosophy-religion (#6)",to-read,,,,0,0
426504,Ficciones,Jorge Luis Borges,"Borges, Jorge Luis","Anthony Kerrigan, Anthony Bonner","=""0802130305""","=""9780802130303""",0,4.41,Grove Press,Paperback,174,1994,1944,,2024/05/14,"to-read, fiction","to-read (#90), fiction (#26)",to-read,,,,0,0
400412,The Waste Land and Other Poems,T.S. Eliot,"Eliot, T.S.",,"=""""","=""""",0,4.22,Harcourt Brace Jovanovich,Paperback,88,1958,1922,,2024/06/07,"to-read, poetry","to-read (#467), poetry (#5)",to-read,,,,0,0
54785515,Four Thousand Weeks: Time Management for Mortals,Oliver Burkeman,"Burkeman, Oliver",,"=""0374159122""","=""9780374159122""",0,4.20,"Farrar, Straus and Giroux",Hardcover,271,2021,2021,,2024/05/15,"to-read, philosophy-religion","to-read (#98), philosophy-religion (#5)",to-read,,,,0,0
46199,Letters to a Young Poet,Rainer Maria Rilke,"Rilke, Rainer Maria","Franz Xaver Kappus, Reginald Snell","=""0486422453""","=""9780486422459""",0,4.29,Dover Publications,Paperback,80,2002,1929,,2024/06/09,"to-read, poetry","to-read (#502), poetry (#4)",to-read,,,,0,0
12321,Beyond Good and Evil,Friedrich Nietzsche,"Nietzsche, Friedrich","Michael Tanner, R.J. Hollingdale","=""014044923X""","=""9780140449235""",0,4.03,Penguin Classics,Paperback,240,2003,1886,,2024/05/23,"to-read, philosophy-religion","to-read (#263), philosophy-religion (#4)",to-read,,,,0,0
112204,The Complete Poems of Emily Dickinson,Emily Dickinson,"Dickinson, Emily","Thomas H. Johnson, Mabel Loomis Todd, Thomas Wentworth Higgins","=""""","=""""",0,4.28,"Little, Brown and Company",Paperback,716,1976,1890,,2024/06/07,"to-read, poetry","to-read (#479), poetry (#3)",to-read,,,,0,0
27494,Leaves of Grass,Walt Whitman,"Whitman, Walt",,"=""""","=""""",0,4.12,Simon  Schuster,Paperback,624,2006,1855,,2024/06/07,"to-read, poetry","to-read (#478), poetry (#2)",to-read,,,,0,0
11991,The Fall,Albert Camus,"Camus, Albert",Justin O'Brien,"=""0679720227""","=""9780679720225""",0,4.04,Vintage Books,Paperback,147,1991,1956,,2024/05/18,"to-read, philosophy-religion","to-read (#146), philosophy-religion (#3)",to-read,,,,0,0
51893,Thus Spoke Zarathustra,Friedrich Nietzsche,"Nietzsche, Friedrich","Walter Kaufmann, Silvia Cecchini, Domenico Ciampoli","=""""","=""""",0,4.07,Penguin Books,Paperback,327,1978,1883,,2024/05/31,"to-read, philosophy-religion","to-read (#407), philosophy-religion (#2)",to-read,,,,0,0
30659,Meditations,Marcus Aurelius,"Aurelius, Marcus",Martin Hammond,"=""0140449337""","=""9780140449334""",0,4.28,Penguin Books,Paperback,254,2006,180,,2024/05/12,"to-read, philosophy-religion","to-read (#34), philosophy-religion (#1)",to-read,,,,0,0
22917,The Complete Grimm's Fairy Tales,Jacob Grimm,"Grimm, Jacob","Wilhelm Grimm, Josef Scharl, Padraic Colum, Joseph Campbell, Margaret Raine Hunt","=""""","=""""",0,4.23,Pantheon Books,Paperback,880,1976,1812,,2024/06/02,"to-read, fiction","to-read (#456), fiction (#25)",to-read,,,,0,0
2547,The Prophet,Kahlil Gibran,"Gibran, Kahlil",,"=""000100039X""","=""9780001000391""",0,4.23,Rupa & Co,Paperback,127,2003,1923,,2024/05/14,"to-read, poetry","to-read (#89), poetry (#1)",to-read,,,,0,0
117833,The Master and Margarita,Mikhail Bulgakov,"Bulgakov, Mikhail","Diana Lewis Burgin, Katherine Tiernan O'Connor, Ellendea Proffer, Hans Fronius, Михаил Афанасьевич Булгаков","=""0679760806""","=""9780679760801""",0,4.29,Vintage International,Paperback,372,1996,1967,,2024/05/12,"to-read, fiction","to-read (#24), fiction (#24)",to-read,,,,0,0
656,War and Peace,Leo Tolstoy,"Tolstoy, Leo","Aylmer Maude, Louise Maude","=""0192833987""","=""9780192833983""",0,4.17,Oxford University Press,Paperback,1392,1998,1869,,2024/05/25,"to-read, fiction","to-read (#331), fiction (#23)",to-read,,,,0,0
4934,The Brothers Karamazov,Fyodor Dostoevsky,"Dostoevsky, Fyodor","Richard Pevear, Larissa Volokhonsky","=""0374528373""","=""9780374528379""",0,4.38,"Farrar, Straus and Giroux",Paperback,796,2002,1880,,2024/05/12,"to-read, fiction","to-read (#23), fiction (#22)",to-read,,,,0,0
93101,The Arabian Nights,Anonymous,"Anonymous, Anonymous","A.S. Byatt, Richard Francis Burton","=""0812972147""","=""9780812972146""",0,4.03,Modern Library,Mass Market Paperback,1049,2004,800,,2024/05/20,"to-read, fiction","to-read (#210), fiction (#21)",to-read,,,,0,0
41160292,Exhalation,Ted Chiang,"Chiang, Ted",,"=""""","=""""",0,4.27,Knopf,ebook,368,2019,2019,,2024/05/13,"to-read, fiction","to-read (#48), fiction (#20)",to-read,,,,0,0
223380,Stories of Your Life and Others,Ted Chiang,"Chiang, Ted",,"=""0330426648""","=""9780330426640""",0,4.25,Small Beer Press,ebook,281,2010,2002,,2024/05/13,"to-read, fiction","to-read (#47), fiction (#19)",to-read,,,,0,0
12914,The Aeneid,Virgil,"Virgil, Virgil","Robert Fitzgerald, David   West","=""0679729526""","=""9780679729525""",0,3.87,Vintage,Paperback,442,1990,-19,,2024/05/22,"to-read, fiction","to-read (#222), fiction (#18)",to-read,,,,0,0
10374,Hard-Boiled Wonderland and the End of the World,Haruki Murakami,"Murakami, Haruki",Alfred Birnbaum,"=""""","=""""",0,4.12,Vintage,Paperback,400,2003,1985,,2024/05/21,"to-read, fiction","to-read (#215), fiction (#17)",to-read,,,,0,0
40180098,The Overstory,Richard Powers,"Powers, Richard",,"=""039335668X""","=""9780393356687""",0,4.12,W.W. Norton & Company,Paperback,502,2019,2018,,2024/05/25,"to-read, fiction","to-read (#333), fiction (#16)",to-read,,,,0,0
16631,Steppenwolf,Hermann Hesse,"Hesse, Hermann",Basil Creighton,"=""0140282580""","=""9780140282580""",0,4.13,Penguin,Paperback,256,1999,1927,,2024/05/27,"to-read, fiction","to-read (#366), fiction (#15)",to-read,,,,0,0
27712,The Neverending Story,Michael Ende,"Ende, Michael",Ralph Manheim,"=""0525457585""","=""9780525457589""",0,4.18,Dutton Children's Books,Hardcover,396,1997,1979,,2024/05/13,"to-read, fiction","to-read (#52), fiction (#14)",to-read,,,,0,0
3836,Don Quixote,Miguel de Cervantes Saavedra,"Saavedra, Miguel de Cervantes","Roberto González Echevarría, John Rutherford","=""""","=""""",0,3.90,Penguin Books,Paperback,1023,2003,1615,,2024/05/25,"to-read, fiction","to-read (#332), fiction (#13)",to-read,,,,0,0
40651883,Snow Crash,Neal Stephenson,"Stephenson, Neal",,"=""""","=""""",0,4.02,Spectra,Kindle Edition,559,2018,1992,,2024/05/14,"to-read, fiction","to-read (#91), fiction (#12)",to-read,,,,0,0
15839976,"Red Rising (Red Rising Saga, #1)",Pierce Brown,"Brown, Pierce",,"=""0345539788""","=""9780345539786""",0,4.27,Del Rey,Hardcover,382,2014,2014,,2024/05/12,"to-read, fiction","to-read (#20), fiction (#10)",to-read,,,,0,0
36236124,Fight Club,Chuck Palahniuk,"Palahniuk, Chuck",,"=""0393355942""","=""9780393355949""",0,4.18,W. W. Norton & Company,Paperback,224,2018,1996,,2024/05/13,"to-read, fiction","to-read (#51), fiction (#9)",to-read,,,,0,0
18373,Flowers for Algernon,Daniel Keyes,"Keyes, Daniel",,"=""015603008X""","=""9780156030083""",0,4.23,Harvest Books,Paperback,311,2004,1966,,2024/05/16,"to-read, fiction","to-read (#117), fiction (#8)",to-read,,,,0,0
15823480,Anna Karenina,Leo Tolstoy,"Tolstoy, Leo","Aylmer Maude, Louise Maude, Dieter Wellershoff, Bruno Goetz, Lev Tolstoj, Léon Tolstoï","=""0345803922""","=""9780345803924""",0,4.10,Vintage,Paperback,964,2012,1878,,2024/05/25,"to-read, fiction","to-read (#330), fiction (#7)",to-read,,,,0,0
7126,The Count of Monte Cristo,Alexandre Dumas,"Dumas, Alexandre",Robin Buss,"=""0140449264""","=""9780140449266""",0,4.31,Penguin Classics,Paperback,1276,2003,1846,,2024/05/12,"to-read, fiction","to-read (#102), fiction (#5)",to-read,,,,1,0
7144,Crime and Punishment,Fyodor Dostoevsky,"Dostoevsky, Fyodor","David McDuff, Joseph Frank","=""""","=""""",0,4.28,Penguin,Paperback,671,2002,1866,,2024/05/12,"to-read, fiction","to-read (#21), fiction (#4)",to-read,,,,0,0
186074,"The Name of the Wind (The Kingkiller Chronicle, #1)",Patrick Rothfuss,"Rothfuss, Patrick",,"=""075640407X""","=""9780756404079""",0,4.52,Penguin Group DAW,Hardcover,662,2007,2007,,2024/05/27,"to-read, fiction","to-read (#370), fiction (#3)",to-read,,,,0,0
320,One Hundred Years of Solitude,Gabriel García Márquez,"Márquez, Gabriel García",Gregory Rabassa,"=""""","=""""",0,4.12,Harper,Mass Market Paperback,417,2003,1967,,2024/05/25,"to-read, fiction","to-read (#311), fiction (#2)",to-read,,,,0,0
44767458,"Dune (Dune, #1)",Frank Herbert,"Herbert, Frank",,"=""059309932X""","=""9780593099322""",0,4.28,Ace,Hardcover,658,2019,1965,,2024/05/12,"to-read, fiction","to-read (#19), fiction (#1)",to-read,,,,0,0
325785,Capital: A Critique of Political Economy Volume 1,Karl Marx,"Marx, Karl",,"=""0140445684""","=""9780140445688""",0,4.09,Penguin Classics,Paperback,1152,1992,1867,,2024/05/23,"to-read, nonfiction","to-read (#262), nonfiction (#196)",to-read,,,,0,0
609117,Two Treatises of Government and A Letter Concerning Toleration,John Locke,"Locke, John",Ian Shapiro,"=""0300100183""","=""9780300100181""",0,3.87,Yale University Press,Paperback,384,2003,1689,,2024/06/15,"to-read, philosophy-religion","to-read (#523), philosophy-religion (#89)",to-read,,,,0,0
33803100,Am I Being Too Subtle?: Straight Talk From a Business Rebel,Sam Zell,"Zell, Sam",,"=""0698408888""","=""9780698408883""",0,4.24,Portfolio,Kindle Edition,235,2017,2017,,2024/07/27,"nonfiction, to-read","nonfiction (#420), to-read (#550)",to-read,,,,0,0
1008101,Made in Japan: Akio Morita and Sony,Akio Morita,"Morita, Akio","Edwin M. Reingold, Mitsuko Shimomura","=""0525244654""","=""9780525244653""",0,4.08,E. P. Dutton,Hardcover,309,1986,1986,,2024/07/27,"nonfiction, to-read","nonfiction (#419), to-read (#549)",to-read,,,,0,0
214151287,Protocols: An Operating Manual for the Human Body,Andrew D. Huberman,"Huberman, Andrew D.",,"=""1668032147""","=""9781668032145""",0,4.05,S&S/Simon Element,Hardcover,384,2025,,,2024/07/26,"to-read, nonfiction","to-read (#548), nonfiction (#418)",to-read,,,,0,0
17607323,The Way of the Fight,Georges St-Pierre,"St-Pierre, Georges",,"=""0062292366""","=""9780062292360""",0,4.03,HarperAudio,Audiobook,,2013,2013,,2024/07/23,"to-read, nonfiction","to-read (#547), nonfiction (#417)",to-read,,,,0,0
16158559,Undisputed Truth,Mike Tyson,"Tyson, Mike",Larry Sloman,"=""0399161287""","=""9780399161285""",0,4.17,Blue Rider Press,Hardcover,592,2013,2013,,2024/07/21,"to-read, nonfiction","to-read (#546), nonfiction (#416)",to-read,,,,0,0
25663961,How Not to Die: Discover the Foods Scientifically Proven to Prevent and Reverse Disease,Michael Greger,"Greger, Michael",Gene  Stone,"=""1250066115""","=""9781250066114""",0,4.42,Flatiron Books,Hardcover,576,2015,2015,,2024/07/21,"to-read, nonfiction","to-read (#545), nonfiction (#415)",to-read,,,,0,0
28256439,"The Hidden Life of Trees: What They Feel, How They Communicate: Discoveries from a Secret World",Peter Wohlleben,"Wohlleben, Peter","Tim Flannery, Jane Billinghurst, Suzanne Simard","=""1771642483""","=""9781771642484""",0,4.07,Greystone Books,Hardcover,272,2016,2015,,2024/07/21,"to-read, nonfiction","to-read (#544), nonfiction (#414)",to-read,,,,0,0
87040,Gathering Moss: A Natural and Cultural History of Mosses,Robin Wall Kimmerer,"Kimmerer, Robin Wall",,"=""0870714996""","=""9780870714993""",0,4.39,Oregon State University Press,Paperback,168,2003,2003,,2024/07/21,"to-read, nonfiction","to-read (#543), nonfiction (#413)",to-read,,,,0,0
52668915,"Entangled Life: How Fungi Make Our Worlds, Change Our Minds & Shape Our Futures",Merlin Sheldrake,"Sheldrake, Merlin",,"=""0525510311""","=""9780525510314""",0,4.34,Random House,Hardcover,352,2020,2020,,2024/07/21,"to-read, nonfiction","to-read (#542), nonfiction (#412)",to-read,,,,0,0
316781,Exploring the World of Lucid Dreaming,Stephen LaBerge,"LaBerge, Stephen",Howard Rheingold,"=""034537410X""","=""9780345374103""",0,4.22,Ballantine Books,Mass Market Paperback,335,1991,1989,,2024/05/15,"to-read, nonfiction","to-read (#541), nonfiction (#411)",to-read,,,,1,0
274063,"Geometry, Relativity and the Fourth Dimension (Dover Books on Mathematics)",Rudolf Rucker,"Rucker, Rudolf",,"=""0486234002""","=""9780486234007""",0,4.23,Dover Publications,Paperback,160,1977,1977,,2024/06/23,"to-read, textbooks","to-read (#540), textbooks (#133)",to-read,,,,0,0
183683,The Secret Teachings of All Ages,Manly P. Hall,"Hall, Manly P.",,"=""1585422509""","=""9781585422500""",0,4.28,TarcherPerigee,Paperback,768,2003,1928,,2024/06/23,"to-read, philosophy-religion","to-read (#539), philosophy-religion (#56)",to-read,,,,0,0
16029151,I Have a Dream,Martin Luther King Jr.,"Jr., Martin Luther King",Kadir Nelson,"=""037598772X""","=""9780375987724""",4,4.50,Schwartz & Wade,Kindle Edition,40,2012,1973,2024/06/17,2024/05/23,,,read,,,,1,0
11063159,Elements of Algebra (Cambridge Library Collection - Mathematics),Leonhard Euler,"Euler, Leonhard",John Hewlett,"=""110800296X""","=""9781108002967""",2,4.34,Cambridge University Press,Paperback,628,2009,1765,2024/06/02,2024/05/20,,,read,,,,1,0
9402297,The Bed of Procrustes: Philosophical and Practical Aphorisms,Nassim Nicholas Taleb,"Taleb, Nassim Nicholas",,"=""1400069971""","=""9781400069972""",2,3.79,Random House,Hardcover,112,2010,2010,2024/06/17,2024/05/14,,,read,,,,1,0
12067,"Good Omens: The Nice and Accurate Prophecies of Agnes Nutter, Witch",Terry Pratchett,"Pratchett, Terry",Neil Gaiman,"=""""","=""""",1,4.25,William Morrow Paperbacks,Mass Market Paperback,491,2006,1990,2024/06/05,2024/06/04,,,read,,,,1,0
11,"The Hitchhiker’s Guide to the Galaxy (Hitchhiker's Guide to the Galaxy, #1)",Douglas Adams,"Adams, Douglas",,"=""""","=""""",2,4.22,Del Rey Books,Mass Market Paperback,216,2005,1979,2024/06/10,2024/06/10,,,read,,,,1,0
2999495,Tales from Outer Suburbia,Shaun Tan,"Tan, Shaun",,"=""0771084021""","=""9780771084027""",2,4.33,McClelland & Stewart,Hardcover,96,2008,2008,2024/06/18,2024/06/17,,,read,,,,1,0
203899,Letter from the Birmingham Jail,Martin Luther King Jr.,"Jr., Martin Luther King",,"=""0062509551""","=""9780062509550""",5,4.72,Harpercollins,Hardcover,48,1994,1963,2024/06/17,2024/05/23,,,read,,,,1,0
343002,The Emperor's New Clothes,Hans Christian Andersen,"Andersen, Hans Christian",Virginia Lee Burton,"=""0618344217""","=""9780618344215""",4,3.98,Houghton Mifflin Books for Children,Hardcover,48,2004,1837,2024/06/04,2024/05/20,,,read,,,,1,0
1151331,Fables,Jean de la Fontaine,"Fontaine, Jean de la",,"=""2266127756""","=""9782266127752""",2,4.02,Pocket,Paperback,482,2002,1668,2024/06/04,2024/06/01,,,read,,,,1,0
904538,The Book of Tea,Kakuzō Okakura,"Okakura, Kakuzō",Elise Grilli,"=""0804800693""","=""9780804800693""",1,3.85,Tuttle,Hardcover,133,1989,1906,2024/06/12,2024/05/22,,,read,,,,1,0
157993,The Little Prince,Antoine de Saint-Exupéry,"Saint-Exupéry, Antoine de",Richard Howard,"=""0152023984""","=""9780152023980""",2,4.33,"Harcourt, Inc.",Hardcover,96,2000,1943,2024/06/17,2024/05/15,,,read,,,,1,0
920607,The Arrival,Shaun Tan,"Tan, Shaun",,"=""""","=""""",3,4.35,Lothian Books,Hardcover,132,2007,2007,2024/06/18,2024/06/17,,,read,,,,1,0
300946,The Red Tree,Shaun Tan,"Tan, Shaun",,"=""0968876838""","=""9780968876831""",0,4.50,Simply Read Books,Hardcover,32,2003,2001,,2024/06/17,"to-buy, to-read","to-buy (#4), to-read (#537)",to-read,,,,0,0
123239380,The Cat Who Taught Zen,James Norbury,"Norbury, James",,"=""006334761X""","=""9780063347618""",0,4.31,William Morrow,Hardcover,176,2023,2023,,2024/06/17,"to-read, to-buy","to-read (#536), to-buy (#3)",to-read,,,,0,0
61165542,"The Journey (Big Panda & Tiny Dragon, #2)",James Norbury,"Norbury, James",,"=""1647229731""","=""9781647229733""",0,4.45,Mandala Publishing,Hardcover,160,2022,2022,,2024/06/17,"to-read, to-buy","to-read (#535), to-buy (#2)",to-read,,,,0,0
55926835,"Big Panda & Tiny Dragon (Big Panda & Tiny Dragon, #1)",James Norbury,"Norbury, James",,"=""1911277146""","=""9781911277149""",0,4.39,Lightning Source UK Ltd / Milton Keynes UK,Hardcover,94,2020,2021,,2024/06/17,"to-read, to-buy","to-read (#534), to-buy (#1)",to-read,,,,0,0
6129974,"Simplicity Parenting: Using the Extraordinary Power of Less to Raise Calmer, Happier, and More Secure Kids",Kim John Payne,"Payne, Kim John",Lisa M. Ross,"=""0345507975""","=""9780345507976""",0,4.22,Ballantine Books,Hardcover,256,2009,2009,,2024/06/16,"to-read, parenting","to-read (#533), parenting (#10)",to-read,,,,0,0
952,The Five Love Languages of Children,Gary Chapman,"Chapman, Gary",D. Ross Campbell,"=""1881273652""","=""9781881273653""",0,4.17,Northfield Publishing,Paperback,224,1997,1995,,2024/06/16,"to-read, parenting","to-read (#532), parenting (#9)",to-read,,,,0,0
59627738,Good Inside: A Practical Guide to Resilient Parenting Prioritizing Connection Over Correction,Becky   Kennedy,"Kennedy, Becky",,"=""0063159481""","=""9780063159488""",0,4.53,Harper Wave,Hardcover,336,2022,,,2024/06/16,"to-read, parenting","to-read (#531), parenting (#8)",to-read,,,,0,0
40873423,No-Drama Discipline: The Whole-Brain Way to Calm the Chaos and Nurture Your Child's Developing Mind,Daniel J. Siegel,"Siegel, Daniel J.",Tina Payne Bryson,"=""0345548051""","=""9780345548054""",0,4.26,Bantam,Kindle Edition,290,2014,2014,,2024/06/16,"to-read, parenting","to-read (#530), parenting (#7)",to-read,,,,0,0
12816644,Siblings Without Rivalry: How to Help Your Children Live Together So You Can Live Too,Adele Faber,"Faber, Adele",Elaine Mazlish,"=""0393342212""","=""9780393342215""",0,4.19,W. W. Norton & Company,Paperback,288,2012,1972,,2024/06/16,"to-read, parenting","to-read (#529), parenting (#6)",to-read,,,,0,0
40121328,"Cribsheet: A Data-Driven Guide to Better, More Relaxed Parenting, from Birth to Preschool",Emily Oster,"Oster, Emily",,"=""0525559256""","=""9780525559252""",0,4.14,Penguin Press,Hardcover,352,2019,2019,,2024/06/16,"to-read, parenting","to-read (#528), parenting (#5)",to-read,,,,0,0
23275206,No Bad Kids: Toddler Discipline Without Shame,Janet Lansbury,"Lansbury, Janet",,"=""1499351119""","=""9781499351118""",0,4.27,JLML Press,Paperback,162,2014,2014,,2024/06/16,"to-read, parenting","to-read (#527), parenting (#4)",to-read,,,,0,0
54304028,"Hunt, Gather, Parent: What Ancient Cultures Can Teach Us About the Lost Art of Raising Happy, Helpful Little Humans",Michaeleen Doucleff,"Doucleff, Michaeleen",,"=""1982149671""","=""9781982149673""",0,4.15,Avid Reader Press / Simon & Schuster,Hardcover,352,2021,2021,,2024/06/16,"to-read, parenting","to-read (#526), parenting (#3)",to-read,,,,0,0
38103723,The Montessori Toddler: A Parent's Guide to Raising a Curious and Responsible Human Being,Simone Davies,"Davies, Simone",,"=""9082796902""","=""9789082796902""",0,4.29,Jacaranda Tree Publishing,Paperback,245,2018,2018,,2024/06/16,"to-read, parenting","to-read (#525), parenting (#2)",to-read,,,,0,0
29430725,How to Talk so Little Kids Will Listen: A Survival Guide to Life with Children Ages 2-7 (The How To Talk Series),Joanna Faber,"Faber, Joanna",Julie King,"=""1501131656""","=""9781501131653""",0,4.39,Scribner,Hardcover,385,2017,2017,,2024/06/16,"to-read, parenting","to-read (#524), parenting (#1)",to-read,,,,0,0
72910,The Gift,Hafez,"Hafez, Hafez",Daniel Ladinsky,"=""0140195815""","=""9780140195811""",0,4.40,Penguin Compass,Paperback,333,1999,1999,,2024/06/10,"to-read, poetry","to-read (#521), poetry (#15)",to-read,,,,0,0
46292,The Divan,Hafez,"Hafez, Hafez",Henry Wilberforce Clarke,"=""9646534783""","=""9789646534780""",0,4.65,جیحون,Hardcover,566,2003,1390,,2024/06/10,"to-read, poetry","to-read (#520), poetry (#19)",to-read,,,,0,0
361298,Forty Studies that Changed Psychology: Explorations into the History of Psychological Research,Roger R. Hock,"Hock, Roger R.",,"=""0131147293""","=""9780131147294""",0,4.11,Prentice Hall,Paperback,322,2005,,,2024/06/10,"to-read, nonfiction","to-read (#519), nonfiction (#410)",to-read,,,,0,0
297751,Japanese Cooking: A Simple Art,Shizuo Tsuji,"Tsuji, Shizuo","Yoshiki Tsuji, Ruth Reichl, M.F.K. Fisher","=""4770030495""","=""9784770030498""",0,4.33,Kodansha USA,Hardcover,508,2007,1980,,2024/06/09,"to-read, nonfiction","to-read (#518), nonfiction (#409)",to-read,,,,0,0
18667790,The Third Plate: Field Notes on the Future of Food,Dan Barber,"Barber, Dan",,"=""1594204071""","=""9781594204074""",0,4.28,Penguin Press,Hardcover,496,2014,2014,,2024/06/09,"to-read, nonfiction","to-read (#517), nonfiction (#408)",to-read,,,,0,0
18708238,"Tea: History, Terroirs, Varieties",Kevin Gascoyne,"Gascoyne, Kevin","François Marchand, Jasmin Desharnais, Hugo Americi","=""1770853197""","=""9781770853195""",0,4.28,Firefly Books,Paperback,272,2013,2009,,2024/06/09,"to-read, nonfiction","to-read (#516), nonfiction (#407)",to-read,,,,0,0
534045,The Blue Cliff Record,Yuanwu Keqin,"Keqin, Yuanwu","Thomas Cleary, J.C. Cleary, Taizan Maezumi Roshi, Setcho","=""159030232X""","=""9781590302323""",0,4.41,Shambhala,Paperback,688,2005,1112,,2024/06/09,"to-read, philosophy-religion","to-read (#515), philosophy-religion (#93)",to-read,,,,0,0
769888,The Gateless Gate: The Classic Book of Zen Koans,Wumen Huikai,"Huikai, Wumen","Kōun Yamada, Ruben L.F. Habito","=""0861713826""","=""9780861713820""",0,4.23,Wisdom Publications,Paperback,336,2004,1228,,2024/06/09,"to-read, philosophy-religion","to-read (#514), philosophy-religion (#94)",to-read,,,,0,0
204914,The Seven Laws of Teaching,John Milton Gregory,"Gregory, John Milton",,"=""0801064961""","=""9780801064968""",0,4.27,Baker Books,Paperback,128,2004,1886,,2024/06/09,"to-read, nonfiction","to-read (#513), nonfiction (#406)",to-read,,,,0,0
178788,"The China Study: The Most Comprehensive Study of Nutrition Ever Conducted and the Startling Implications for Diet, Weight Loss, and Long-term Health",T. Colin Campbell,"Campbell, T. Colin",,"=""1932100660""","=""9781932100662""",0,4.24,Benbella Books,Paperback,419,2006,2004,,2024/06/09,"to-read, nonfiction","to-read (#512), nonfiction (#405)",to-read,,,,0,0
28257707,The Subtle Art of Not Giving a F*ck: A Counterintuitive Approach to Living a Good Life,Mark Manson,"Manson, Mark",,"=""""","=""9798804636129""",2,3.87,Harper,Paperback,212,2016,2016,2024/06/09,2024/05/12,,,read,,,,1,0
23463279,Designing Data-Intensive Applications,Martin Kleppmann,"Kleppmann, Martin",,"=""""","=""""",0,4.70,O'Reilly,ebook,562,,2015,,2024/06/09,"to-read, textbooks","to-read (#511), textbooks (#132)",to-read,,,,0,0
130730,Universal Principles of Design,William Lidwell,"Lidwell, William","Kritina Holden, Jill Butler","=""1592530079""","=""9781592530076""",0,4.16,Rockport Publishers,Hardcover,216,2003,2003,,2024/06/09,"to-read, nonfiction","to-read (#510), nonfiction (#404)",to-read,,,,0,0
13127519,Design for How People Learn,Julie Dirksen,"Dirksen, Julie",Michael W. Allen,"=""0321768434""","=""9780321768438""",0,4.26,New Riders Pub,Paperback,259,2011,2011,,2024/06/09,"to-read, nonfiction","to-read (#509), nonfiction (#403)",to-read,,,,0,0
125937631,Material World: The Six Raw Materials That Shape Modern Civilization,Ed Conway,"Conway, Ed",Edmund Conway,"=""0593534344""","=""9780593534342""",0,4.52,Knopf,Hardcover,512,2023,2023,,2024/06/09,"to-read, nonfiction","to-read (#508), nonfiction (#402)",to-read,,,,0,0
58009109,The Power Law: Venture Capital and the Making of the New Future,Sebastian Mallaby,"Mallaby, Sebastian",,"=""052555999X""","=""9780525559993""",0,4.43,Penguin Press,Hardcover,496,2022,2022,,2024/06/09,"to-read, nonfiction","to-read (#507), nonfiction (#401)",to-read,,,,0,0
208916,The Music of the Primes,Marcus du Sautoy,"Sautoy, Marcus du",,"=""0060935588""","=""9780060935580""",0,4.12,Harper Perennial,Paperback,350,2004,2003,,2024/06/09,"to-read, nonfiction","to-read (#505), nonfiction (#400)",to-read,,,,0,0
4806,Longitude: The True Story of a Lone Genius Who Solved the Greatest Scientific Problem of His Time,Dava Sobel,"Sobel, Dava",Neil Armstrong,"=""0802714625""","=""9780802714626""",0,3.99,Walker Books,Hardcover,184,2005,1995,,2024/06/09,"to-read, nonfiction","to-read (#504), nonfiction (#399)",to-read,,,,0,0
4059448,A. Lincoln,Ronald C. White Jr.,"Jr., Ronald C. White",,"=""1400064996""","=""9781400064991""",0,4.30,Random House ,Hardcover,816,2009,2009,,2024/06/09,"to-read, nonfiction","to-read (#500), nonfiction (#398)",to-read,,,,0,0
17618,"W.E.B. Du Bois: Biography of a Race, 1868-1919",David Levering Lewis,"Lewis, David Levering",,"=""0613630866""","=""9780613630863""",0,4.38,Turtleback Books,Library Binding,735,1994,1993,,2024/06/09,"to-read, nonfiction","to-read (#499), nonfiction (#397)",to-read,,,,0,0
1659305,"Bearing the Cross: Martin Luther King, Jr., And The Southern Christian Leadership Conference",David J. Garrow,"Garrow, David J.",,"=""0688166326""","=""9780688166328""",0,4.34,Harper Perennial,Paperback,800,1999,1986,,2024/06/09,"to-read, nonfiction","to-read (#498), nonfiction (#396)",to-read,,,,0,0
1558473,Benjamin Franklin,Carl van Doren,"Doren, Carl van",,"=""0140152601""","=""9780140152609""",0,4.20,Penguin Books,Paperback,864,1991,1938,,2024/06/09,"to-read, nonfiction","to-read (#497), nonfiction (#395)",to-read,,,,0,0
87476,A Thousand Days: John F. Kennedy in the White House,Arthur M. Schlesinger Jr.,"Jr., Arthur M. Schlesinger",David Sobel,"=""1579124496""","=""9781579124496""",0,4.16,Black Dog & Leventhal,Hardcover,384,2005,1965,,2024/06/09,"to-read, nonfiction","to-read (#496), nonfiction (#394)",to-read,,,,0,0
80571,American Prometheus: The Triumph and Tragedy of J. Robert Oppenheimer,Kai Bird,"Bird, Kai",Martin J. Sherwin,"=""""","=""""",0,4.32,Vintage Books,Paperback,721,2007,2005,,2024/06/09,"to-read, nonfiction","to-read (#495), nonfiction (#393)",to-read,,,,0,0
8255917,Washington: A Life,Ron Chernow,"Chernow, Ron",,"=""1594202664""","=""9781594202667""",0,4.17,Penguin Press,Hardcover,904,2010,2010,,2024/06/09,"to-read, nonfiction","to-read (#494), nonfiction (#392)",to-read,,,,0,0
2852265,Peter the Great: His Life and World,Robert K. Massie,"Massie, Robert K.",,"=""0349104611""","=""9780349104614""",0,4.15,Abacus,Paperback,913,1995,1980,,2024/06/09,"to-read, nonfiction","to-read (#493), nonfiction (#391)",to-read,,,,0,0
2279,Truman,David McCullough,"McCullough, David",,"=""0671869205""","=""9780671869205""",0,4.16,Simon  Schuster,Paperback,1120,1993,1992,,2024/06/09,"to-read, nonfiction","to-read (#492), nonfiction (#390)",to-read,,,,0,0
86524,"The Path to Power (The Years of Lyndon Johnson, #1)",Robert A. Caro,"Caro, Robert A.",,"=""0679729453""","=""9780679729457""",0,4.41,Vintage,Paperback,882,1990,1982,,2024/06/09,"to-read, nonfiction","to-read (#491), nonfiction (#389)",to-read,,,,0,0
40929,The Rise of Theodore Roosevelt,Edmund Morris,"Morris, Edmund",,"=""0375756787""","=""9780375756788""",0,4.23,The Modern Library,Paperback,816,2001,1979,,2024/06/09,"to-read, nonfiction","to-read (#490), nonfiction (#388)",to-read,,,,0,0
273197,Embracing Defeat: Japan in the Wake of World War II,John W. Dower,"Dower, John W.",,"=""0393320278""","=""9780393320275""",0,4.15,W. W. Norton & Company,Paperback,676,2000,1999,,2024/06/09,"to-read, nonfiction","to-read (#489), nonfiction (#387)",to-read,,,,0,0
169354,"The Prize: The Epic Quest for Oil, Money, and Power",Daniel Yergin,"Yergin, Daniel",,"=""0671799320""","=""9780671799328""",0,4.43,Free Press,Paperback,928,1993,1991,,2024/06/09,"to-read, nonfiction","to-read (#488), nonfiction (#387)",to-read,,,,0,0
4887,The Drama of the Gifted Child: The Search for the True Self,Alice   Miller,"Miller, Alice",,"=""0465016901""","=""9780465016907""",3,4.05,Basic Books,Paperback,136,1997,1979,2024/06/08,2024/05/15,,,read,,,,1,0
118824,Walt Disney: The Triumph of the American Imagination,Neal Gabler,"Gabler, Neal",,"=""067943822X""","=""9780679438229""",0,4.06,Alfred A. Knopf,Hardcover,851,2006,2006,,2024/06/07,"to-read, nonfiction","to-read (#487), nonfiction (#385)",to-read,,,,0,0
161789,The Toyota Way: 14 Management Principles from the World's Greatest Manufacturer,Jeffrey K. Liker,"Liker, Jeffrey K.",,"=""0071392319""","=""9780071392310""",0,4.08,McGraw Hill,Hardcover,330,2004,2003,,2024/06/07,"to-read, nonfiction","to-read (#486), nonfiction (#383)",to-read,,,,0,0
25812847,The Silk Roads: A New History of the World,Peter Frankopan,"Frankopan, Peter",,"=""1408839970""","=""9781408839973""",0,4.17,Bloomsbury,Hardcover,636,2015,2015,,2024/06/07,"to-read, nonfiction","to-read (#485), nonfiction (#382)",to-read,,,,0,0
40718726,Genghis Khan and the Making of the Modern World,Jack Weatherford,"Weatherford, Jack",,"=""""","=""""",0,4.06,Broadway Books,Kindle Edition,352,2018,2004,,2024/06/07,"to-read, nonfiction","to-read (#484), nonfiction (#381)",to-read,,,,0,0
7841459,Alexander the Great,Philip Freeman,"Freeman, Philip",,"=""1416592806""","=""9781416592808""",0,4.32,Simon & Schuster,Hardcover,391,2011,2010,,2024/06/07,"to-read, nonfiction","to-read (#474), nonfiction (#380)",to-read,,,,0,0
80369,Discipline and Punish: The Birth of the Prison,Michel Foucault,"Foucault, Michel",Alan Sheridan,"=""0679752552""","=""9780679752554""",0,4.23,Vintage,Paperback,333,1995,1975,,2024/06/07,"to-read, nonfiction","to-read (#473), nonfiction (#379)",to-read,,,,0,0
41464,Moon in a Dewdrop: Writings of Zen Master Dogen,Dōgen,"Dōgen, Dōgen","Kazuaki Tanahashi, Robert Aitken, Reb Anderson, Edward G. Brown, Norman Fischer, Arnold Kotler, Daniel Leighton, Lew Richmond, Katherine Thanas, Brian Unger, Mel Weitsman, Dan Welch, Philip Whalen, David    Schneider","=""086547186X""","=""9780865471863""",0,4.28,North Point Press,Paperback,356,1995,1985,,2024/06/07,"to-read, philosophy-religion","to-read (#472), philosophy-religion (#42)",to-read,,,,0,0
20821092,Napoleon: A Life,Andrew Roberts,"Roberts, Andrew",,"=""0670025321""","=""9780670025329""",0,4.24,Viking Pr,Paperback,976,2014,2014,,2024/06/07,"to-read, nonfiction","to-read (#471), nonfiction (#378)",to-read,,,,0,0
16131,The House of Morgan: An American Banking Dynasty and the Rise of Modern Finance,Ron Chernow,"Chernow, Ron",,"=""0802138292""","=""9780802138293""",0,3.96,Grove Press,Paperback,812,2001,1990,,2024/06/07,"to-read, nonfiction","to-read (#465), nonfiction (#377)",to-read,,,,0,0
376237,Toyota Production System: Beyond large-scale production,Taiichi Ohno,"Ohno, Taiichi",Norman Bodek,"=""0915299143""","=""9780915299140""",0,4.10,Productivity Press ,Hardcover,152,1988,1978,,2024/06/07,"to-read, nonfiction","to-read (#464), nonfiction (#376)",to-read,,,,0,0
857333,The Art of Learning: A Journey in the Pursuit of Excellence,Josh Waitzkin,"Waitzkin, Josh",,"=""0743277457""","=""9780743277457""",0,4.04,Free Press,Hardcover,265,2007,2007,,2024/05/12,"to-read, nonfiction","to-read (#463), nonfiction (#375)",to-read,,,,1,0
3828902,Thinking In Systems: A Primer,Donella H. Meadows,"Meadows, Donella H.",Diana Wright,"=""1603580557""","=""9781603580557""",0,4.19,Chelsea Green Publishing,Paperback,218,2008,2008,,2024/06/03,"to-read, nonfiction","to-read (#459), nonfiction (#374)",to-read,,,,0,0
30971755,A Crack in Creation: Gene Editing and the Unthinkable Power to Control Evolution,Jennifer A. Doudna,"Doudna, Jennifer A.",Samuel H. Sternberg,"=""0544716949""","=""9780544716940""",0,4.13,Mariner Books,Hardcover,304,2017,2017,,2024/06/03,"to-read, nonfiction","to-read (#458), nonfiction (#373)",to-read,,,,0,0
7614750,Cyrus the Great: The Arts of Leadership and War,Xenophon,"Xenophon, Xenophon",,"=""142990531X""","=""9781429905312""",0,4.13,Truman Talley Books,ebook,320,2007,-360,,2024/06/02,"to-read, nonfiction","to-read (#457), nonfiction (#372)",to-read,,,,0,0
17563539,The Egg,Andy Weir,"Weir, Andy",,"=""""","=""""",4,4.21,Andy Weir / Galactanet,ebook,3,2009,2009,2024/01/01,2024/05/14,,,read,,,,1,0
170448,Animal Farm,George Orwell,"Orwell, George","Russell Baker, C.M. Woodhouse","=""0451526341""","=""9780451526342""",3,4.00,Signet Classics,Mass Market Paperback,141,1996,1945,2016/01/01,2024/05/12,,,read,,,,1,0
135479,Cat’s Cradle,Kurt Vonnegut Jr.,"Jr., Kurt Vonnegut",,"=""""","=""""",3,4.15,Penguin,Paperback,306,1999,1963,2022/01/01,2024/05/12,,,read,,,,1,0
28205242,You and Your Research,Richard Hamming,"Hamming, Richard",,"=""""","=""""",4,4.66,Bell Communications Research,Unknown Binding,16,1986,1986,2024/05/26,2024/05/18,,,read,,,,1,0
370493,The Giving Tree,Shel Silverstein,"Silverstein, Shel",,"=""0060256656""","=""9780060256654""",4,4.38,HarperCollins Publishers,Hardcover,64,1964,1964,2024/05/15,2024/05/13,,,read,,,,1,0
261243,History of the Peloponnesian War,Thucydides,"Thucydides, Thucydides","M.I. Finley, Rex Warner","=""0140440399""","=""9780140440393""",0,3.94,Penguin Books,Paperback,648,1972,-411,,2024/06/01,"to-read, nonfiction","to-read (#436), nonfiction (#371)",to-read,,,,0,0
393902,Basic Writings,Martin Heidegger,"Heidegger, Martin",David Farrell Krell,"=""0060637633""","=""9780060637637""",0,4.07,HarperCollins,Paperback,464,1993,1964,,2024/06/01,"to-read, philosophy-religion","to-read (#455), philosophy-religion (#50)",to-read,,,,0,0
80396,Psychology: The Briefer Course,William  James,"James, William",,"=""0486416046""","=""9780486416045""",0,4.00,Dover Publications,Paperback,368,2001,1892,,2024/06/01,"to-read, nonfiction","to-read (#454), nonfiction (#370)",to-read,,,,0,0
1653783,The Theory Of Parallels,Nikolai Lobachevsky,"Lobachevsky, Nikolai",,"=""1603860150""","=""9781603860154""",0,4.08,Merchant Books,Paperback,56,2007,1914,,2024/06/01,"to-read, textbooks","to-read (#451), textbooks (#130)",to-read,,,,0,0
1180695,Essays on the Theory of Numbers (Dover Books on Mathematics),Richard Dedekind,"Dedekind, Richard",,"=""0486210103""","=""9780486210100""",0,4.15,Dover Publications,Paperback,128,1963,1901,,2024/06/01,"to-read, textbooks","to-read (#448), textbooks (#129)",to-read,,,,0,0
68218,Dialogue Concerning the Two Chief World Systems: Ptolemaic and Copernican,Galileo Galilei,"Galilei, Galileo","Stephen Jay Gould, Stillman Drake, Albert Einstein, J.L. Heilbron","=""037575766X""","=""9780375757662""",0,4.08,Modern Library,Paperback,586,2001,1632,,2024/06/01,"to-read, textbooks","to-read (#446), textbooks (#128)",to-read,,,,0,0
1355730,Two New Sciences: Including Centres of Gravity and Force of Percussion,Galileo Galilei,"Galilei, Galileo","Stillman Drake, Maurice Clavelin","=""0921332203""","=""9780921332206""",0,4.07,Wall & Thompson,Hardcover,,1989,1638,,2024/06/01,"to-read, textbooks","to-read (#445), textbooks (#127)",to-read,,,,0,0
144526,The Geometry of René Descartes: with a Facsimile of the First Edition (Dover Books on Mathematics),René Descartes,"Descartes, René","Marcia L. Latham, David Eugene Smith","=""0486600688""","=""9780486600680""",0,4.11,"Dover Publications, Inc.",Paperback,272,1954,1637,,2024/06/01,"to-read, textbooks","to-read (#444), textbooks (#126)",to-read,,,,0,0
1021759,Epitome of Copernican Astronomy and Harmonies of the World (Great Minds Series),Johannes Kepler,"Kepler, Johannes",,"=""1573920363""","=""9781573920360""",0,4.03,Prometheus,Paperback,254,1995,1621,,2024/06/01,"to-read, textbooks","to-read (#443), textbooks (#125)",to-read,,,,0,0
691235,Elements of Chemistry (Dover Books on Chemistry),Antoine Lavoisier,"Lavoisier, Antoine","Douglas McKie, Robert Kerr","=""0486646246""","=""9780486646244""",0,3.90,Dover Publications (NY),Paperback,543,1984,1789,,2024/06/01,"to-read, textbooks","to-read (#442), textbooks (#124)",to-read,,,,0,0
19083,Politics,Aristotle,"Aristotle, Aristotle",Benjamin Jowett,"=""0486414248""","=""9780486414249""",0,3.98,Dover Publications,Paperback,368,2000,-350,,2024/06/01,"to-read, nonfiction","to-read (#441), nonfiction (#369)",to-read,,,,0,0
55002,The Fall of the Roman Republic,Plutarch,"Plutarch, Plutarch","Robin Seager, Rex Warner","=""0140449345""","=""9780140449341""",0,4.11,Penguin Classics,Paperback,414,2006,100,,2024/06/01,"to-read, nonfiction","to-read (#440), nonfiction (#368)",to-read,,,,0,0
279456,Plutarch's Lives: Volume II,Plutarch,"Plutarch, Plutarch","John Dryden, James Atlas, Arthur Hugh Clough","=""0375756779""","=""9780375756771""",0,4.19,Modern Library,Paperback,706,2001,2015,,2024/06/01,"to-read, nonfiction","to-read (#439), nonfiction (#367)",to-read,,,,0,0
415634,Plutarch's Lives: Volume I,Plutarch,"Plutarch, Plutarch","John Dryden, James Atlas, Arthur Hugh Clough","=""0375756760""","=""9780375756764""",0,4.10,Modern Library,Paperback,766,2001,100,,2024/06/01,"to-read, nonfiction","to-read (#438), nonfiction (#366)",to-read,,,,0,0
1362,The Histories,Herodotus,"Herodotus, Herodotus","John M. Marincola, Aubrey de Sélincourt, Betty Radice","=""0140449086""","=""9780140449082""",0,4.01,Penguin Books,Paperback,784,2003,-430,,2024/06/01,"to-read, nonfiction","to-read (#437), nonfiction (#365)",to-read,,,,0,0
6572270,Bloodlands: Europe Between Hitler and Stalin,Timothy Snyder,"Snyder, Timothy",,"=""0465002390""","=""9780465002399""",0,4.39,Basic Books,Hardcover,524,2010,2010,,2024/06/01,"to-read, nonfiction","to-read (#433), nonfiction (#364)",to-read,,,,0,0
797329,Maxims,François de La Rochefoucauld,"Rochefoucauld, François de La",Leonard Tancock,"=""014044095X""","=""9780140440959""",0,4.03,Penguin Classics,Paperback,126,1982,1665,,2024/06/01,"to-read, philosophy-religion","to-read (#432), philosophy-religion (#63)",to-read,,,,0,0
367596,"Manias, Panics, and Crashes: A History of Financial Crises",Charles P. Kindleberger,"Kindleberger, Charles P.",,"=""0471389455""","=""9780471389453""",0,3.94,Wiley,Paperback,304,2000,1978,,2024/06/01,"to-read, nonfiction","to-read (#430), nonfiction (#363)",to-read,,,,0,0
13629,The Mythical Man-Month: Essays on Software Engineering,Frederick P. Brooks Jr.,"Jr., Frederick P. Brooks",,"=""0201835959""","=""9780201835953""",0,4.01,Addison-Wesley Professional,Paperback,322,1995,1975,,2024/06/01,"to-read, nonfiction","to-read (#429), nonfiction (#362)",to-read,,,,0,0
677285,Ignition!: An informal history of liquid rocket propellants,John Drury Clark,"Clark, John Drury",,"=""0813507251""","=""9780813507255""",0,4.13,Rutgers University Press,Hardcover,214,1972,1972,,2024/06/01,"to-read, nonfiction","to-read (#428), nonfiction (#361)",to-read,,,,0,0
10883,Benjamin Franklin: An American Life,Walter Isaacson,"Isaacson, Walter",,"=""074325807X""","=""9780743258074""",0,4.05,Simon & Schuster,Paperback,586,2004,2003,,2024/06/01,"to-read, nonfiction","to-read (#427), nonfiction (#360)",to-read,,,,0,0
245344,Structures: Or Why Things Don't Fall Down,J.E. Gordon,"Gordon, J.E.",,"=""0306812835""","=""9780306812835""",0,4.14,Da Capo,Paperback,395,2003,1978,,2024/06/01,"to-read, nonfiction","to-read (#426), nonfiction (#359)",to-read,,,,0,0
178628338,Read Write Own: Building the Next Era of the Internet,Chris  Dixon,"Dixon, Chris",,"=""0593731387""","=""9780593731383""",0,3.98,Random House,Hardcover,320,2024,,,2024/06/01,"to-read, nonfiction","to-read (#425), nonfiction (#358)",to-read,,,,0,0
10884,Einstein: His Life and Universe,Walter Isaacson,"Isaacson, Walter",,"=""0743264738""","=""9780743264730""",0,4.17,Simon & Schuster,Hardcover,675,2007,2007,,2024/06/01,"to-read, nonfiction","to-read (#424), nonfiction (#357)",to-read,,,,0,0
29519,Conspiracy of Fools,Kurt Eichenwald,"Eichenwald, Kurt",,"=""0767911792""","=""9780767911795""",0,4.19,Crown,Paperback,784,2005,2005,,2024/06/01,"to-read, nonfiction","to-read (#423), nonfiction (#356)",to-read,,,,0,0
186124,Fortune's Formula: The Untold Story of the Scientific Betting System That Beat the Casinos and Wall Street,William Poundstone,"Poundstone, William",,"=""0809045990""","=""9780809045990""",0,4.18,Hill and Wang,Paperback,386,2006,2006,,2024/06/01,"to-read, nonfiction","to-read (#422), nonfiction (#355)",to-read,,,,0,0
41611,Hard Drive: Bill Gates and the Making of the Microsoft Empire,James Wallace,"Wallace, James",Jim Erickson,"=""0887306292""","=""9780887306297""",0,4.12,HarperCollins,Paperback,426,1993,1992,,2024/06/01,"to-read, nonfiction","to-read (#421), nonfiction (#354)",to-read,,,,0,0
781182,Barbarians at the Gate: The Fall of RJR Nabisco,Bryan Burrough,"Burrough, Bryan",John Helyar,"=""0060536357""","=""9780060536350""",0,4.28,HarperBus,Paperback,592,2005,1989,,2024/06/01,"to-read, nonfiction","to-read (#420), nonfiction (#353)",to-read,,,,0,0
1160,Damn Right!: Behind the Scenes with Berkshire Hathaway Billionaire Charlie Munger,Janet Lowe,"Lowe, Janet",Warren Buffett,"=""0471446912""","=""9780471446910""",0,4.16,Wiley,Paperback,304,2003,2000,,2024/06/01,"to-read, nonfiction","to-read (#419), nonfiction (#352)",to-read,,,,0,0
209955,The Warren Buffett Portfolio,Robert G. Hagstrom,"Hagstrom, Robert G.",,"=""0471247669""","=""9780471247661""",0,4.24,John Wiley & Sons Inc,Hardcover,246,1999,1999,,2024/06/01,"to-read, nonfiction","to-read (#418), nonfiction (#351)",to-read,,,,0,0
16121,"Titan: The Life of John D. Rockefeller, Sr.",Ron Chernow,"Chernow, Ron",,"=""1400077303""","=""9781400077304""",0,4.16,Vintage,Paperback,832,2004,1998,,2024/06/01,"to-read, nonfiction","to-read (#417), nonfiction (#350)",to-read,,,,0,0
345849,Mellon: An American Life,David Cannadine,"Cannadine, David",,"=""0679450327""","=""9780679450320""",0,3.94,Knopf,Hardcover,800,2006,2006,,2024/06/01,"to-read, nonfiction","to-read (#416), nonfiction (#349)",to-read,,,,0,0
441966,"A Matter of Degrees: What Temperature Reveals about the Past and Future of Our Species, Planet, and Universe",Gino Segrè,"Segrè, Gino",,"=""014200278X""","=""9780142002780""",0,4.02,Penguin Books,Paperback,320,2003,2002,,2024/06/01,"to-read, nonfiction","to-read (#415), nonfiction (#348)",to-read,,,,0,0
755105,Ice Age,John Gribbin,"Gribbin, John",Mary Gribbin,"=""0141007303""","=""9780141007304""",0,4.06,Penguin Books,Hardcover,112,2003,2001,,2024/06/01,"to-read, nonfiction","to-read (#414), nonfiction (#347)",to-read,,,,0,0
587906,Deep Simplicity: Bringing Order to Chaos and Complexity,John Gribbin,"Gribbin, John",,"=""140006256X""","=""9781400062560""",0,3.97,Random House,Hardcover,279,2005,2004,,2024/06/01,"to-read, textbooks","to-read (#413), textbooks (#123)",to-read,,,,0,0
34684622,Leonardo da Vinci,Walter Isaacson,"Isaacson, Walter",,"=""1501139150""","=""9781501139154""",0,4.19,Simon & Schuster,Hardcover,600,2017,2017,,2024/05/31,"to-read, nonfiction","to-read (#411), nonfiction (#346)",to-read,,,,0,0
21856367,"The Innovators: How a Group of Hackers, Geniuses and Geeks Created the Digital Revolution",Walter Isaacson,"Isaacson, Walter",,"=""147670869X""","=""9781476708690""",0,4.12,Simon and Schuster,Hardcover,542,2014,2011,,2024/05/31,"to-read, nonfiction","to-read (#410), nonfiction (#345)",to-read,,,,0,0
2276288,A Discipline of Programming,Edsger W. Dijkstra,"Dijkstra, Edsger W.",,"=""013215871X""","=""9780132158718""",0,4.23,Pearson,Paperback,217,1976,1976,,2024/05/20,"to-read, textbooks","to-read (#203), textbooks (#137)",to-read,,,,0,0
13112139,"Diogenes the Cynic: Sayings and Anecdotes, with Other Popular Moralists",Diogenes of Sinope,"Sinope, Diogenes of",Robin Hard,"=""0199589240""","=""9780199589241""",0,4.15,Oxford University Press,Paperback,259,2012,2012,,2024/05/31,"to-read, nonfiction","to-read (#404), nonfiction (#344)",to-read,,,,0,0
134891,Fragments,Heraclitus,"Heraclitus, Heraclitus","Brooks Haxton, James Hillman","=""0142437654""","=""9780142437650""",0,4.18,Penguin Classics,Paperback,97,2003,-501,,2024/05/31,"to-read, nonfiction","to-read (#405), nonfiction (#343)",to-read,,,,0,0
767171,The Rise and Fall of the Third Reich: A History of Nazi Germany,William L. Shirer,"Shirer, William L.",,"=""0671728687""","=""9780671728687""",0,4.22,Simon & Schuster,Mass Market Paperback,1147,1990,1960,,2024/05/31,"to-read, nonfiction","to-read (#408), nonfiction (#342)",to-read,,,,0,0
56977420,Understanding Distributed Systems: What every developer should know about large distributed applications,Roberto Vitillo,"Vitillo, Roberto",,"=""""","=""""",0,4.37,,ebook,234,2021,,,2024/05/31,"to-read, textbooks","to-read (#409), textbooks (#122)",to-read,,,,0,0
2034402,Designing Design,Kenya Hara,"Hara, Kenya",,"=""303778105X""","=""9783037781050""",0,4.50,Lars Müller Publishers,Hardcover,467,2007,2003,,2024/05/23,"to-read, nonfiction","to-read (#257), nonfiction (#341)",to-read,,,,0,0
3216708,Concise Inorganic Chemistry,J.D. Lee,"Lee, J.D.",,"=""0412788209""","=""9780412788208""",0,4.09,Springer,Paperback,1032,1996,1965,,2024/05/31,"to-read, textbooks","to-read (#403), textbooks (#19)",to-read,,,,0,0
22847284,Grokking Algorithms An Illustrated Guide For Programmers and Other Curious People,Aditya Y. Bhargava,"Bhargava, Aditya Y.",,"=""1617292230""","=""9781617292231""",0,4.42,Manning Publications Co,Paperback,256,2015,2015,,2024/05/31,"to-read, textbooks","to-read (#402), textbooks (#121)",to-read,,,,0,0
264543,Abstract Algebra,David S. Dummit,"Dummit, David S.",Richard M. Foote,"=""0471433349""","=""9780471433347""",0,4.20,Wiley,Hardcover,944,2003,1967,,2024/05/30,"to-read, textbooks","to-read (#401), textbooks (#120)",to-read,,,,0,0
292079,Principles of Mathematical Analysis,Walter Rudin,"Rudin, Walter",,"=""0070856133""","=""9780070856134""",0,4.28,McGraw-Hill Publishing Company,Paperback,342,1976,1964,,2024/05/30,"to-read, textbooks","to-read (#398), textbooks (#119)",to-read,,,,0,0
328645,Calculus,Michael Spivak,"Spivak, Michael",,"=""0914098896""","=""9780914098898""",0,4.52,PUBLISH OR PERISH,Hardcover,670,1994,1967,,2024/05/30,"to-read, textbooks","to-read (#397), textbooks (#118)",to-read,,,,0,0
12543,Bird by Bird,Anne Lamott,"Lamott, Anne",,"=""""","=""""",0,4.24,Anchor,Paperback,238,1995,1994,,2024/05/30,"to-read, nonfiction","to-read (#400), nonfiction (#338)",to-read,,,,0,0
55189231,The Art and Business of Online Writing: How to Beat the Game of Capturing and Keeping Attention,Nicolas Cole,"Cole, Nicolas",,"=""0998203483""","=""9780998203485""",0,4.41,Nicolas Cole,Kindle Edition,340,2020,,,2024/05/30,"to-read, nonfiction","to-read (#399), nonfiction (#337)",to-read,,,,0,0
81978,"Man, Economy, and State / Power and Market: Government and Economy",Murray N. Rothbard,"Rothbard, Murray N.",Joseph Stromberg,"=""0945466307""","=""9780945466307""",0,4.48,Ludwig von Mises Institute,Hardcover,1544,2004,1962,,2024/05/30,"to-read, textbooks","to-read (#395), textbooks (#3)",to-read,,,,0,0
81977,What Has Government Done to Our Money? and The Case for a 100 Percent Gold Dollar,Murray N. Rothbard,"Rothbard, Murray N.",,"=""0945466447""","=""9780945466444""",0,4.27,Ludwig von Mises Institute,Hardcover,191,2005,1963,,2024/05/30,"to-read, nonfiction","to-read (#396), nonfiction (#334)",to-read,,,,0,0
746104,Principles of Economics,Carl Menger,"Menger, Carl","James Dingwall, Bert F. Hoselitz","=""0814753809""","=""9780814753804""",0,4.30,New York University Press,Hardcover,328,1981,1871,,2024/05/30,"to-read, textbooks","to-read (#394), textbooks (#117)",to-read,,,,0,0
53343,On Writing Well: The Classic Guide to Writing Nonfiction,William Zinsser,"Zinsser, William",,"=""0060891548""","=""9780060891541""",0,4.24,Harper Perennial,Paperback,321,2006,1976,,2024/05/30,"to-read, nonfiction","to-read (#392), nonfiction (#330)",to-read,,,,0,0
30556551,Nobody Wants to Read Your Sh*t: Why That Is And What You Can Do About It,Steven Pressfield,"Pressfield, Steven",Shawn Coyne,"=""1936891506""","=""9781936891504""",0,4.19,Black Irish Entertainment LLC,Kindle Edition,191,2016,2016,,2024/05/30,"to-read, nonfiction","to-read (#393), nonfiction (#331)",to-read,,,,0,0
116418,Topology,James R. Munkres,"Munkres, James R.",,"=""0131816292""","=""9780131816299""",0,4.30,Pearson College Div,Hardcover,537,2000,1974,,2024/05/30,"to-read, textbooks","to-read (#390), textbooks (#115)",to-read,,,,0,0
549449,The Making of the President 1960,Theodore H. White,"White, Theodore H.",,"=""0760762899""","=""9780760762899""",0,4.15,Leventhal,Hardcover,486,2004,1961,,2024/05/29,"to-read, nonfiction","to-read (#388), nonfiction (#325)",to-read,,,,0,0
43190966,Refactoring UI,Adam Wathan,"Wathan, Adam",Steve Schoger,"=""""","=""""",0,4.66,,ebook,252,2018,,,2024/05/30,"to-read, textbooks","to-read (#391), textbooks (#116)",to-read,,,,0,0
171127,The Little Book of Common Sense Investing: The Only Way to Guarantee Your Fair Share of Stock Market Returns,John C. Bogle,"Bogle, John C.",,"=""0470102101""","=""9780470102107""",0,4.15,John Wiley & Sons Inc,Hardcover,216,2007,2007,,2024/05/29,"to-read, nonfiction","to-read (#387), nonfiction (#324)",to-read,,,,0,0
187041,Problem-Solving Strategies (Problem Books in Mathematics),Arthur Engel,"Engel, Arthur",,"=""0387982191""","=""9780387982199""",0,4.48,Springer,Paperback,413,1997,1997,,2024/05/29,"to-read, textbooks","to-read (#384), textbooks (#113)",to-read,,,,0,0
593458,The Art And Craft of Problem Solving,Paul Zeitz,"Zeitz, Paul",,"=""0471789011""","=""9780471789017""",0,4.59,John Wiley & Sons Inc,Paperback,366,2006,1999,,2024/05/29,"to-read, textbooks","to-read (#385), textbooks (#114)",to-read,,,,0,0
910789,The Elements Of Computing Systems: Building A Modern Computer From First Principles,Noam Nisan,"Nisan, Noam",,"=""026214087X""","=""9780262140874""",0,4.54,Mit Pr,Hardcover,325,2005,2005,,2024/05/28,"to-read, textbooks","to-read (#381), textbooks (#111)",to-read,,,,0,0
1586807,A Friendly Introduction to Number Theory,Joseph H. Silverman,"Silverman, Joseph H.",,"=""0131861379""","=""9780131861374""",0,4.33,Pearson,Hardcover,448,2005,2013,,2024/05/29,"to-read, textbooks","to-read (#383), textbooks (#112)",to-read,,,,0,0
13586932,The Outsiders: Eight Unconventional CEOs and Their Radically Rational Blueprint for Success,William N. Thorndike Jr.,"Jr., William N. Thorndike",,"=""1422162672""","=""9781422162675""",0,4.22,Harvard Business Review Press,Hardcover,251,2012,2012,,2024/05/29,"to-read, nonfiction","to-read (#386), nonfiction (#323)",to-read,,,,0,0
4845,Code Complete: A Practical Handbook of Software Construction,Steve McConnell,"McConnell, Steve",,"=""0735619670""","=""9780735619678""",0,4.30,Microsoft Press,Paperback,914,2004,1993,,2024/05/28,"to-read, textbooks","to-read (#377), textbooks (#109)",to-read,,,,0,0
33514,The Elements of Style,William Strunk Jr.,"Jr., William Strunk",E.B. White,"=""""","=""""",0,4.18,Allyn & Bacon,Hardcover,105,1999,1918,,2024/05/28,"to-read, nonfiction","to-read (#380), nonfiction (#317)",to-read,,,,0,0
3067234,The Algorithm Design Manual,Steven S. Skiena,"Skiena, Steven S.",,"=""1848000693""","=""9781848000698""",0,4.35,Springer,Hardcover,730,2011,1997,,2024/05/28,"to-read, textbooks","to-read (#379), textbooks (#110)",to-read,,,,0,0
209956,The Warren Buffett Way: Investment Strategies of the World's Greatest Investor,Robert G. Hagstrom,"Hagstrom, Robert G.",,"=""0471177504""","=""9780471177500""",0,4.18,Wiley,Mass Market Paperback,336,1997,1994,,2024/05/28,"to-read, nonfiction","to-read (#374), nonfiction (#311)",to-read,,,,0,0
500514,The Dhandho Investor: The Low-Risk Value Method to High Returns,Mohnish Pabrai,"Pabrai, Mohnish",,"=""047004389X""","=""9780470043899""",0,4.22,Wiley,Hardcover,183,2007,2007,,2024/05/28,"to-read, nonfiction","to-read (#375), nonfiction (#312)",to-read,,,,0,0
558059,The Fractal Geometry of Nature,Benoît B. Mandelbrot,"Mandelbrot, Benoît B.",,"=""0716711869""","=""9780716711865""",0,4.23,Times Books,Hardcover,468,1982,1977,,2024/05/28,"to-read, textbooks","to-read (#373), textbooks (#108)",to-read,,,,0,0
1122054,My Life And Work (The Autobiography Of Henry Ford),Henry Ford,"Ford, Henry",,"=""1420928198""","=""9781420928198""",0,4.18,Digireads.com,Paperback,140,2007,1922,,2024/05/28,"to-read, nonfiction","to-read (#372), nonfiction (#309)",to-read,,,,0,0
18194765,Draft No. 4: On the Writing Process,John McPhee,"McPhee, John",,"=""""","=""""",0,4.09,The New Yorker,Hardcover,208,2013,2013,,2024/05/27,"to-read, nonfiction","to-read (#368), nonfiction (#308)",to-read,,,,0,0
41181911,Super Thinking: The Big Book of Mental Models,Gabriel Weinberg,"Weinberg, Gabriel",Lauren McCann,"=""0525533583""","=""9780525533580""",0,4.04,Portfolio,Hardcover,354,2019,2019,,2024/05/27,"to-read, nonfiction","to-read (#367), nonfiction (#307)",to-read,,,,0,0
21343,The Five Dysfunctions of a Team,Patrick Lencioni,"Lencioni, Patrick",,"=""0787960756""","=""9780787960759""",0,4.11,FisicalBook,Paperback,228,2011,2002,,2024/05/27,"to-read, nonfiction","to-read (#364), nonfiction (#306)",to-read,,,,0,0
22456,"The Origin of Wealth: Evolution, Complexity, and the Radical Remaking of Economics",Eric D. Beinhocker,"Beinhocker, Eric D.",,"=""157851777X""","=""9781578517770""",0,4.27,Harvard Business Review Press,Hardcover,527,2006,2006,,2024/05/27,"to-read, nonfiction","to-read (#360), nonfiction (#303)",to-read,,,,0,0
11865558,Venture Deals: Be Smarter Than Your Lawyer and Venture Capitalist,Brad Feld,"Feld, Brad",Jason Mendelson,"=""0470929820""","=""9780470929827""",0,4.11,Wiley,Hardcover,240,2011,2011,,2024/05/27,"to-read, nonfiction","to-read (#363), nonfiction (#305)",to-read,,,,0,0
31670196,"Scale: The Universal Laws of Growth, Innovation, Sustainability, and the Pace of Life in Organisms, Cities, Economies, and Companies",Geoffrey B. West,"West, Geoffrey B.",,"=""1594205582""","=""9781594205583""",0,4.12,Penguin Press,Hardcover,481,2017,2017,,2024/05/27,"to-read, nonfiction","to-read (#362), nonfiction (#304)",to-read,,,,0,0
101438,Skunk Works: A Personal Memoir of My Years at Lockheed,Ben R. Rich,"Rich, Ben R.",Leo Janos,"=""""","=""""",0,4.46,"Back Bay Books/Little, Brown & Co. (NY)",Paperback,382,1996,1994,,2024/05/27,"to-read, nonfiction","to-read (#359), nonfiction (#302)",to-read,,,,0,0
16884,The Making of the Atomic Bomb,Richard Rhodes,"Rhodes, Richard",,"=""0684813785""","=""9780684813783""",0,4.40,Simon & Schuster,Paperback,886,1995,1986,,2024/05/27,"to-read, nonfiction","to-read (#357), nonfiction (#315)",to-read,,,,0,0
26530386,"The Vital Question: Energy, Evolution, and the Origins of Complex Life",Nick Lane,"Lane, Nick",,"=""0393352978""","=""9780393352979""",0,4.18,W. W. Norton & Company,Paperback,368,2016,2015,,2024/05/27,"to-read, nonfiction","to-read (#358), nonfiction (#301)",to-read,,,,0,0
43190851,The Hundred-Page Machine Learning Book,Andriy Burkov,"Burkov, Andriy",,"=""""","=""""",0,4.25,Andriy Burkov,Paperback,159,2019,,,2024/05/26,"to-read, textbooks","to-read (#356), textbooks (#107)",to-read,,,,0,0
61063119,The StatQuest Illustrated Guide To Machine Learning,Josh Starmer,"Starmer, Josh",,"=""""","=""""",0,4.71,,Kindle Edition,304,2022,,,2024/05/26,"to-read, textbooks","to-read (#355), textbooks (#106)",to-read,,,,0,0
32289,A Primate's Memoir: A Neuroscientist's Unconventional Life Among the Baboons,Robert M. Sapolsky,"Sapolsky, Robert M.",,"=""0743202414""","=""9780743202411""",0,4.39,Scribner,Paperback,304,2002,2001,,2024/05/26,"to-read, nonfiction","to-read (#353), nonfiction (#296)",to-read,,,,0,0
594467,Botany for Gardeners,Brian Capon,"Capon, Brian",,"=""0881926558""","=""9780881926552""",0,4.21,Timber Press,Paperback,240,2004,1990,,2024/05/26,"to-read, textbooks","to-read (#351), textbooks (#105)",to-read,,,,0,0
3069429,The Royal Horticultural Society Encyclopedia of Gardening,Royal Horticultural Society,"Society, Royal Horticultural",Christopher Brickell,"=""0863189792""","=""9780863189791""",0,4.40,Dorling Kindersley,Hardcover,648,1992,1992,,2024/05/26,"to-read, textbooks","to-read (#350), textbooks (#104)",to-read,,,,0,0
18770267,Make It Stick: The Science of Successful Learning,Peter C. Brown,"Brown, Peter C.","Henry L. Roediger III, Mark A. McDaniel","=""0674729013""","=""9780674729018""",0,4.16,Belknap Press: An Imprint of Harvard University Press,Hardcover,313,2014,2014,,2024/05/26,"to-read, nonfiction","to-read (#352), nonfiction (#295)",to-read,,,,0,0
61153739,Outlive: The Science & Art of Longevity,Peter Attia,"Attia, Peter",Bill Gifford,"=""0593236599""","=""9780593236598""",0,4.35,Harmony,Hardcover,496,2023,2023,,2024/05/26,"to-read, nonfiction","to-read (#354), nonfiction (#297)",to-read,,,,0,0
633128,The Nurture Assumption: Why Children Turn Out the Way They Do,Judith Rich Harris,"Harris, Judith Rich",Steven Pinker,"=""0684857073""","=""9780684857077""",0,4.14,Free Press,Paperback,462,1999,1998,,2024/05/25,"to-read, parenting","to-read (#345), parenting (#11)",to-read,,,,0,0
7936425,More Money Than God: Hedge Funds and the Making of a New Elite,Sebastian Mallaby,"Mallaby, Sebastian",,"=""1594202559""","=""9781594202551""",0,4.10,Penguin Press,Hardcover,496,2010,2010,,2024/05/26,"to-read, nonfiction","to-read (#348), nonfiction (#292)",to-read,,,,0,0
11324722,The Righteous Mind: Why Good People Are Divided by Politics and Religion,Jonathan Haidt,"Haidt, Jonathan",Simona Drelciuc,"=""""","=""""",0,4.20,Pantheon,Hardcover,419,2012,2012,,2024/05/25,"to-read, nonfiction","to-read (#344), nonfiction (#291)",to-read,,,,0,0
306940,Impro: Improvisation and the Theatre,Keith Johnstone,"Johnstone, Keith",,"=""0878301178""","=""9780878301171""",0,4.23,Routledge,Paperback,208,1987,1979,,2024/05/25,"to-read, nonfiction","to-read (#343), nonfiction (#290)",to-read,,,,0,0
317330,The Strategy of Conflict,Thomas C. Schelling,"Schelling, Thomas C.",,"=""0674840313""","=""9780674840317""",0,4.02,Harvard University Press,Paperback,328,1981,1960,,2024/05/25,"to-read, nonfiction","to-read (#341), nonfiction (#288)",to-read,,,,0,0
22478,The Origin of Consciousness in the Breakdown of the Bicameral Mind,Julian Jaynes,"Jaynes, Julian",,"=""0618057072""","=""9780618057078""",0,4.26,Mariner Books,Paperback,491,2000,1976,,2024/05/25,"to-read, nonfiction","to-read (#342), nonfiction (#289)",to-read,,,,0,0
1111,The Power Broker: Robert Moses and the Fall of New York,Robert A. Caro,"Caro, Robert A.",,"=""0394720245""","=""9780394720241""",0,4.51,Vintage Books,Paperback,1246,1975,1974,,2024/05/25,"to-read, nonfiction","to-read (#340), nonfiction (#314)",to-read,,,,0,0
6601267,The Machinery of Life,David S. Goodsell,"Goodsell, David S.",,"=""0387849246""","=""9780387849249""",0,4.42,Copernicus,Hardcover,179,2009,1992,,2024/05/25,"to-read, nonfiction","to-read (#339), nonfiction (#287)",to-read,,,,0,0
34324534,Against the Grain: A Deep History of the Earliest States,James C. Scott,"Scott, James C.",,"=""0300182910""","=""9780300182910""",0,4.13,Yale University Press,Hardcover,312,2017,2017,,2024/05/25,"to-read, nonfiction","to-read (#338), nonfiction (#285)",to-read,,,,0,0
420846,The Accounting Game: Basic Accounting Fresh from the Lemonade Stand,Darrell Mullis,"Mullis, Darrell",Judith Orloff,"=""1570713960""","=""9781570713965""",0,4.26,Sourcebooks Inc,Paperback,179,1998,1998,,2024/05/25,"to-read, textbooks","to-read (#335), textbooks (#102)",to-read,,,,0,0
2068485,The Entrepreneur’s Guide to Business Law,Constance E. Bagley,"Bagley, Constance E.",Craig E. Dauchy,"=""0324204930""","=""9780324204933""",0,4.17,South-Western College/West,Paperback,784,2007,1997,,2024/05/25,"to-read, textbooks","to-read (#336), textbooks (#103)",to-read,,,,0,0
13238716,Tax-Free Wealth: How to Build Massive Wealth by Permanently Lowering Your Taxes,Tom Wheelwright,"Wheelwright, Tom",,"=""1937832058""","=""9781937832056""",0,4.21,"RARI Press, LLC",Paperback,282,2015,2012,,2024/05/25,"to-read, nonfiction","to-read (#334), nonfiction (#277)",to-read,,,,0,0
309768,Linear Algebra Done Right (Undergraduate Texts in Mathematics),Sheldon Axler,"Axler, Sheldon",,"=""0387982582""","=""9780387982588""",0,4.37,Springer,Paperback,272,2004,1995,,2024/05/25,"to-read, textbooks","to-read (#306), textbooks (#82)",to-read,,,,0,0
388049,Introduction to Graph Theory (Dover Books on Mathematics),Richard J. Trudeau,"Trudeau, Richard J.",,"=""0486678709""","=""9780486678702""",0,4.09,Dover Publications,Paperback,224,1994,1994,,2024/05/25,"to-read, textbooks","to-read (#307), textbooks (#83)",to-read,,,,0,0
515601,The C Programming Language,Brian W. Kernighan,"Kernighan, Brian W.",Dennis M. Ritchie,"=""0131103628""","=""9780131103627""",0,4.44,Pearson,Paperback,272,1988,1978,,2024/05/25,"to-read, textbooks","to-read (#320), textbooks (#93)",to-read,,,,0,0
18197267,"Don't Make Me Think, Revisited: A Common Sense Approach to Web Usability (Voices That Matter)",Steve Krug,"Krug, Steve",,"=""0321965515""","=""9780321965516""",0,4.24,New Riders,Paperback,216,2013,2000,,2024/05/25,"to-read, nonfiction","to-read (#304), nonfiction (#244)",to-read,,,,0,0
3869,A Brief History of Time,Stephen Hawking,"Hawking, Stephen",,"=""0553380168""","=""9780553380163""",0,4.21,Bantam Books,Paperback,226,1998,1988,,2024/05/23,"to-read, textbooks","to-read (#280), textbooks (#68)",to-read,,,,0,0
71730,Nonviolent Communication: A Language of Life,Marshall B. Rosenberg,"Rosenberg, Marshall B.",Arun Gandhi,"=""1892005034""","=""9781892005038""",0,4.33,Puddledancer Press,Paperback,220,2003,1999,,2024/05/23,"to-read, nonfiction","to-read (#279), nonfiction (#216)",to-read,,,,0,0
22668729,Hooked: How to Build Habit-Forming Products,Nir   Eyal,"Eyal, Nir",Ryan Hoover,"=""1591847788""","=""9781591847786""",0,4.12,Portfolio,Hardcover,256,2014,2013,,2024/05/25,"to-read, nonfiction","to-read (#305), nonfiction (#245)",to-read,,,,0,0
3438171,A Philosophical Essay on Probabilities (Dover Books on Mathematics),Pierre-Simon Laplace,"Laplace, Pierre-Simon",,"=""0486288757""","=""9780486288758""",0,3.97,Dover Publications,Paperback,224,1996,1994,,2024/05/23,"to-read, textbooks","to-read (#270), textbooks (#64)",to-read,,,,0,0
137917,The Psychology of Intelligence,Jean Piaget,"Piaget, Jean",,"=""0415254019""","=""9780415254014""",0,4.09,Routledge,Paperback,202,2001,1947,,2024/05/23,"to-read, nonfiction","to-read (#276), nonfiction (#208)",to-read,,,,0,0
1867,The Elements of User Experience: User-Centered Design for the Web,Jesse James Garrett,"Garrett, Jesse James",,"=""0735712026""","=""9780735712027""",0,4.01,Peachpit Pr,Paperback,240,2002,2002,,2024/05/23,"to-read, textbooks","to-read (#259), textbooks (#61)",to-read,,,,0,0
840,The Design of Everyday Things,Donald A. Norman,"Norman, Donald A.",,"=""0465067107""","=""9780465067107""",0,4.15,Basic Books,Paperback,257,2002,1988,,2024/05/23,"to-read, nonfiction","to-read (#258), nonfiction (#193)",to-read,,,,0,0
40230101,The Mamba Mentality: How I Play,Kobe Bryant,"Bryant, Kobe","Pau Gasol, Phil Jackson, Andrew D. Bernstein","=""0374201234""","=""9780374201234""",0,4.26,MCD,Hardcover,208,2018,,,2024/05/23,"to-read, nonfiction","to-read (#246), nonfiction (#170)",to-read,,,,0,0
55286154,"The 38 Letters from J.D. Rockefeller to His Son: Perspectives, Ideology, and Wisdom",G. Ng,"Ng, G.",Mr. Tan,"=""""","=""""",0,4.51,,Kindle Edition,187,2020,,,2024/05/21,"to-read, nonfiction","to-read (#217), nonfiction (#169)",to-read,,,,0,0
44895,Confessions of an Advertising Man,David Ogilvy,"Ogilvy, David",Alan Parker,"=""1904915019""","=""9781904915010""",0,4.01,Southbank Publishing,Paperback,208,2004,1963,,2024/05/21,"to-read, nonfiction","to-read (#214), nonfiction (#166)",to-read,,,,0,0
955045,Against the Odds: An Autobiography,James Dyson,"Dyson, James",,"=""1587990148""","=""9781587990144""",0,4.31,Texere,Paperback,,2000,1997,,2024/05/20,"to-read, nonfiction","to-read (#204), nonfiction (#158)",to-read,,,,0,0
837153,Adding a Dimension: Seventeen Essays on the History of Science,Isaac Asimov,"Asimov, Isaac",,"=""0234778741""","=""9780234778746""",0,4.21,Dobson Books Ltd,Hardcover,205,1966,1964,,2024/05/20,"to-read, nonfiction","to-read (#211), nonfiction (#162)",to-read,,,,0,0
17363,Relativity Visualized,Lewis Carroll Epstein,"Epstein, Lewis Carroll",,"=""093521805X""","=""9780935218053""",0,4.39,Insight Press,Paperback,206,1985,1984,,2024/05/19,"to-read, nonfiction","to-read (#183), nonfiction (#135)",to-read,,,,0,0
208288,On Formally Undecidable Propositions of Principia Mathematica and Related Systems,Kurt Gödel,"Gödel, Kurt",Bernard Meltzer,"=""0486669807""","=""9780486669809""",0,4.48,Dover Publications,Paperback,80,1992,1992,,2024/05/20,"to-read, textbooks","to-read (#197), textbooks (#46)",to-read,,,,0,0
880735,The Mathematical Theory of Communication,Claude Shannon,"Shannon, Claude",Warren Weaver,"=""0252725484""","=""9780252725487""",0,4.38,The University of Illinois Press,Paperback,125,1963,1949,,2024/05/20,"to-read, textbooks","to-read (#194), textbooks (#44)",to-read,,,,0,0
1487022,The Book of Mirdad: The strange story of a monastery which was once called The Ark,Mikhail Naimy,"Naimy, Mikhail",,"=""1842930389""","=""9781842930380""",0,4.30,Watkins Pub Ltd,Paperback,192,2002,1948,,2024/05/19,"to-read, nonfiction","to-read (#186), nonfiction (#137)",to-read,,,,0,0
1319,The War of Art,Steven Pressfield,"Pressfield, Steven",Robert McKee,"=""0446691437""","=""9780446691437""",0,3.99,Warner Books,Paperback,168,2003,2002,,2024/05/19,"to-read, nonfiction","to-read (#177), nonfiction (#130)",to-read,,,,0,0
6466,Rules of Civility & Decent Behavior in Company and Conversation,George Washington,"Washington, George",,"=""155709103X""","=""9781557091031""",0,4.07,Applewood Books,Hardcover,30,1989,1887,,2024/05/19,"to-read, nonfiction","to-read (#171), nonfiction (#124)",to-read,,,,0,0
855913,Poor Richard's Almanack,Benjamin Franklin,"Franklin, Benjamin",,"=""0880889187""","=""9780880889186""",0,4.13,Peter Pauper Press,Hardcover,80,1980,1732,,2024/05/19,"to-read, nonfiction","to-read (#174), nonfiction (#127)",to-read,,,,0,0
10454418,The Most Important Thing: Uncommon Sense for the Thoughtful Investor (Columbia Business School Publishing),Howard  Marks,"Marks, Howard",,"=""0231153686""","=""9780231153683""",0,4.33,Columbia Business School Publishing,Hardcover,200,2011,2011,,2024/05/19,"to-read, nonfiction","to-read (#176), nonfiction (#129)",to-read,,,,0,0
30192104,Amazon Letters To Shareholders 1997-2016,Jeff Bezos,"Bezos, Jeff",,"=""""","=""""",0,4.70,,ebook,95,,,,2024/05/19,"to-read, nonfiction","to-read (#172), nonfiction (#125)",to-read,,,,0,0
290882,The Upanishads,Anonymous,"Anonymous, Anonymous",Juan Mascaró,"=""""","=""""",0,4.25,Penguin,Paperback,143,1965,-500,,2024/05/19,"to-read, philosophy-religion","to-read (#166), philosophy-religion (#96)",to-read,,,,0,0
827685,Up from Slavery,Booker T. Washington,"Washington, Booker T.",Ishmael Reed,"=""0451527542""","=""9780451527547""",0,4.11,Penguin Books,Paperback,224,2000,1900,,2024/05/19,"to-read, nonfiction","to-read (#169), nonfiction (#123)",to-read,,,,0,0
277145,"Mind and Nature: A Necessary Unity (Advances in Systems Theory, Complexity, and the Human Sciences)",Gregory Bateson,"Bateson, Gregory",Alfonso Montuori,"=""1572734345""","=""9781572734340""",0,4.27,Hampton Press,Paperback,220,2002,,,2024/05/17,"to-read, philosophy-religion","to-read (#123), philosophy-religion (#80)",to-read,,,,0,0
183015,Uncle Petros and Goldbach's Conjecture,Apostolos Doxiadis,"Doxiadis, Apostolos",Απόστολος Δοξιάδης,"=""1582341281""","=""9781582341286""",0,4.04,Bloomsbury USA,Mass Market Paperback,209,2001,1992,,2024/05/18,"to-read, nonfiction","to-read (#138), nonfiction (#102)",to-read,,,,0,0
15852,Relativity: The Special and the General Theory,Albert Einstein,"Einstein, Albert",Nigel Calder,"=""0143039822""","=""9780143039822""",0,4.20,Penguin Classics,Paperback,130,2006,1916,,2024/05/17,"to-read, textbooks","to-read (#131), textbooks (#31)",to-read,,,,0,0
162780,What Is Life? with Mind and Matter and Autobiographical Sketches,Erwin Schrödinger,"Schrödinger, Erwin",Roger Penrose,"=""0521427088""","=""9780521427081""",0,4.13,Cambridge University Press,Paperback,184,1992,1944,,2024/05/16,"to-read, nonfiction","to-read (#119), nonfiction (#87)",to-read,,,,0,0
867247,A Book of Five Rings: The Classic Guide to Strategy,Miyamoto Musashi,"Musashi, Miyamoto","Victor Harris, Lew Hartman","=""0517415283""","=""9780517415283""",0,3.96,Gramercy,Hardcover,192,1988,1645,,2024/05/16,"to-read, nonfiction","to-read (#108), nonfiction (#80)",to-read,,,,0,0
3028,Economics in One Lesson,Henry Hazlitt,"Hazlitt, Henry",,"=""""","=""""",0,4.17,Three Rivers Press,Paperback,218,1979,1946,,2024/05/16,"to-read, nonfiction","to-read (#106), nonfiction (#78)",to-read,,,,0,0
100247,Vagabonding: An Uncommon Guide to the Art of Long-Term World Travel,Rolf Potts,"Potts, Rolf",Timothy Ferriss,"=""0812992180""","=""9780812992182""",0,3.95,Villard Books,Paperback,205,2002,2002,,2024/05/15,"to-read, nonfiction","to-read (#93), nonfiction (#67)",to-read,,,,0,0
32816087,7 Powers: The Foundations of Business Strategy,Hamilton Wright Helmer,"Helmer, Hamilton Wright",,"=""0998116319""","=""9780998116310""",0,4.28,Hamilton Helmer,Paperback,210,2016,,,2024/05/15,"to-read, nonfiction","to-read (#100), nonfiction (#73)",to-read,,,,0,0
34536488,Principles: Life and Work,Ray Dalio,"Dalio, Ray",Jeremy Bobb,"=""1508243247""","=""9781508243243""",0,4.11,Simon & Schuster Audio,Audio CD,16,2017,2017,,2024/05/15,"to-read, nonfiction","to-read (#103), nonfiction (#75)",to-read,,,,0,0
37638098,Creative Selection: Inside Apple's Design Process During the Golden Age of Steve Jobs,Ken Kocienda,"Kocienda, Ken",,"=""1250194466""","=""9781250194466""",0,4.06,St. Martin's Press,Hardcover,264,2018,2018,,2024/05/15,"to-read, nonfiction","to-read (#95), nonfiction (#69)",to-read,,,,0,0
44245196,The Great Mental Models: General Thinking Concepts,Shane Parrish,"Parrish, Shane",Rhiannon Beaubien,"=""""","=""""",0,4.08,Latticework Publishing Inc.,Audiobook,216,2019,2018,,2024/05/15,"to-read, nonfiction","to-read (#96), nonfiction (#70)",to-read,,,,0,0
128533513,Make Something Wonderful,Steve Jobs,"Jobs, Steve",,"=""""","=""""",0,4.49,"The Steve Jobs Archive, LLC",ebook,194,2023,,,2024/05/15,"to-read, nonfiction","to-read (#94), nonfiction (#68)",to-read,,,,0,0
6779,"Six Not So Easy Pieces: Einstein's Relativity, Symmetry, and Space-Time",Richard P. Feynman,"Feynman, Richard P.",Roger Penrose,"=""0465023932""","=""9780465023936""",0,4.26,Basic Books,Paperback,184,2005,1963,,2024/05/14,"to-read, textbooks","to-read (#85), textbooks (#24)",to-read,,,,0,0
905,The Inner Game of Tennis: The Classic Guide to the Mental Side of Peak Performance,W. Timothy Gallwey,"Gallwey, W. Timothy","Pete Carroll, Zach Kleiman","=""0679778314""","=""9780679778318""",0,4.18,Random House Trade Paperbacks,Paperback,134,1997,1974,,2024/05/14,"to-read, nonfiction","to-read (#76), nonfiction (#54)",to-read,,,,0,0
259311,Striking Thoughts: Bruce Lee's Wisdom for Daily Living,Bruce Lee,"Lee, Bruce",John Little,"=""0804834717""","=""9780804834711""",0,4.25,Tuttle Publishing,Paperback,228,2000,2000,,2024/05/14,"to-read, nonfiction","to-read (#72), nonfiction (#52)",to-read,,,,0,0
5553,Six Easy Pieces: Essentials of Physics Explained by Its Most Brilliant Teacher,Richard P. Feynman,"Feynman, Richard P.",Paul C.W. Davies,"=""0465023924""","=""9780465023929""",0,4.21,Basic Books,Paperback,138,1995,1994,,2024/05/14,"to-read, textbooks","to-read (#84), textbooks (#23)",to-read,,,,0,0
22471,The Origins of Virtue: Human Instincts and the Evolution of Cooperation,Matt Ridley,"Ridley, Matt",,"=""0140264450""","=""9780140264456""",0,4.03,Penguin Publishing Group,Paperback,265,1998,1997,,2024/05/14,"to-read, nonfiction","to-read (#80), nonfiction (#58)",to-read,,,,0,0
36064445,Skin in the Game: The Hidden Asymmetries in Daily Life,Nassim Nicholas Taleb,"Taleb, Nassim Nicholas",,"=""0241300657""","=""9780241300657""",0,3.91,Allen Lane,Paperback,272,2018,2018,,2024/05/14,"to-read, nonfiction","to-read (#81), nonfiction (#59)",to-read,,,,0,0
145565,The Essays of Warren Buffett : Lessons for Corporate America,Warren Buffett,"Buffett, Warren",Lawrence A. Cunningham,"=""0966446119""","=""9780966446111""",0,4.33,The Cunningham Group,Paperback,256,2001,1998,,2024/05/14,"to-read, nonfiction","to-read (#69), nonfiction (#49)",to-read,,,,0,0
324750,High Output Management,Andrew S. Grove,"Grove, Andrew S.",,"=""0679762884""","=""9780679762881""",0,4.30,Vintage,Paperback,272,1995,1983,,2024/05/14,"to-read, nonfiction","to-read (#61), nonfiction (#41)",to-read,,,,0,0
52309,The Autobiography of Benjamin Franklin,Benjamin Franklin,"Franklin, Benjamin",,"=""0743255062""","=""9780743255066""",0,3.85,Touchstone,Paperback,143,2004,1791,,2024/05/14,"to-read, nonfiction","to-read (#56), nonfiction (#36)",to-read,,,,0,0
29868590,"Tao of Charlie Munger: A Compilation of Quotes from Berkshire Hathaway's Vice Chairman on Life, Business, and the Pursuit of Wealth With Commentary by David Clark",David                 Clark,"Clark, David",,"=""150115334X""","=""9781501153341""",0,4.11,Scribner,Hardcover,256,2017,,,2024/05/14,"to-read, nonfiction","to-read (#67), nonfiction (#47)",to-read,,,,0,0
62313346,Excellent Advice for Living: Wisdom I Wish I'd Known Earlier,Kevin Kelly,"Kelly, Kevin",,"=""0593654528""","=""9780593654521""",0,4.22,Viking,Hardcover,224,2023,,,2024/05/14,"to-read, nonfiction","to-read (#68), nonfiction (#48)",to-read,,,,0,0
174713,The Lessons of History,Will Durant,"Durant, Will",Ariel Durant,"=""1567310249""","=""9781567310245""",0,4.06,Fine Communications,Hardcover,119,1997,,,2024/05/12,"to-read, nonfiction","to-read (#40), nonfiction (#29)",to-read,,,,0,0
1308474,The Second Law,Peter   Atkins,"Atkins, Peter",,"=""071675004X""","=""9780716750048""",0,4.20,Scientific American Books - W. H. Freeman & Co.,Hardcover,230,1984,1984,,2024/05/12,"to-read, nonfiction","to-read (#30), nonfiction (#24)",to-read,,,,0,0
61539,The Structure of Scientific Revolutions,Thomas S. Kuhn,"Kuhn, Thomas S.",,"=""0226458083""","=""9780226458083""",0,4.03,University of Chicago Press,Paperback,226,1996,1962,,2024/05/12,"to-read, nonfiction","to-read (#35), nonfiction (#27)",to-read,,,,0,0
125116554,Same as Ever: A Guide to What Never Changes,Morgan Housel,"Housel, Morgan",,"=""""","=""9780593332702""",0,4.17,Portfolio,Hardcover,240,2023,2023,,2024/05/12,"to-read, nonfiction","to-read (#26), nonfiction (#21)",to-read,,,,0,0
48019,The Effective Executive: The Definitive Guide to Getting the Right Things Done (Harperbusiness Essentials),Peter F. Drucker,"Drucker, Peter F.",,"=""0060833459""","=""9780060833459""",0,4.08,Harper Business,Paperback,208,2006,1966,,2024/05/12,"to-read, nonfiction","to-read (#9), nonfiction (#9)",to-read,,,,0,0
12675109,"Great by Choice: Uncertainty, Chaos, and Luck—Why Some Thrive Despite Them All",Jim Collins,"Collins, Jim","Jim Collins, Morten T. Hansen","=""0062121006""","=""9780062121004""",0,4.11,HarperBusiness,Kindle Edition,183,2011,2011,,2024/05/12,"to-read, nonfiction","to-read (#15), nonfiction (#15)",to-read,,,,0,0
18050143,"Zero to One: Notes on Startups, or How to Build the Future",Peter Thiel,"Thiel, Peter",Blake  Masters,"=""0804139296""","=""9780804139298""",0,4.15,Crown Currency,Hardcover,195,2014,2014,,2024/05/12,"to-read, nonfiction","to-read (#2), nonfiction (#2)",to-read,,,,0,0
41881472,The Psychology of Money,Morgan Housel,"Housel, Morgan",,"=""0857197681""","=""9780857197689""",0,4.29,Harriman House,Paperback,242,2020,2020,,2024/05/12,"to-read, nonfiction","to-read (#12), nonfiction (#12)",to-read,,,,0,0
6518085,Pro Git (Expert's Voice in Software Development),Scott Chacon,"Chacon, Scott",,"=""1430218339""","=""9781430218333""",0,4.18,Apress,Paperback,290,2009,2009,,2024/05/25,"to-read, textbooks","to-read (#321), textbooks (#131)",to-read,,,,0,0
135486,In the Shadow of Man,Jane Goodall,"Goodall, Jane","Stephen Jay Gould, Hugo van Lawick","=""0618056769""","=""9780618056767""",0,4.36,Mariner Books,Paperback,297,2000,1971,,2024/05/23,"to-read, nonfiction","to-read (#281), nonfiction (#218)",to-read,,,,0,0
299215,The Road to Serfdom,Friedrich A. Hayek,"Hayek, Friedrich A.",Milton Friedman,"=""0226320618""","=""9780226320618""",0,4.15,University of Chicago Press,Paperback,274,1994,1944,,2024/05/23,"to-read, philosophy-religion","to-read (#274), philosophy-religion (#30)",to-read,,,,0,0
677923,The Essays,Francis Bacon,"Bacon, Francis",John Pitcher,"=""0140432167""","=""9780140432169""",0,3.81,Penguin Classics,Paperback,288,1986,1597,,2024/05/23,"to-read, philosophy-religion","to-read (#260), philosophy-religion (#34)",to-read,,,,0,0
30113404,All I Want To Know Is Where I'm Going To Die So I'll Never Go There,Peter Bevelin,"Bevelin, Peter",,"=""1681840480""","=""9781681840482""",0,4.63,PCA Publications,Hardcover,280,2016,2016,,2024/05/21,"to-read, nonfiction","to-read (#216), nonfiction (#168)",to-read,,,,0,0
762462,One Up On Wall Street: How to Use What You Already Know to Make Money in the Market,Peter Lynch,"Lynch, Peter",,"=""0743200403""","=""9780743200400""",0,4.28,Simon & Schuster,Paperback,304,2000,1988,,2024/05/19,"to-read, nonfiction","to-read (#182), nonfiction (#134)",to-read,,,,0,0
318742,The Souls of Black Folk,W.E.B. Du Bois,"Bois, W.E.B. Du","Donald B. Gibson, Monica W. Elbert","=""""","=""""",0,4.31,Penguin Classics,Paperback,288,1996,1903,,2024/05/19,"to-read, nonfiction","to-read (#167), nonfiction (#122)",to-read,,,,0,0
53138083,"Working Backwards: Insights, Stories, and Secrets from Inside Amazon",Colin Bryar,"Bryar, Colin",Bill Carr,"=""1250267595""","=""9781250267597""",0,4.21,St. Martin's Press,Hardcover,304,2021,2021,,2024/05/19,"to-read, nonfiction","to-read (#164), nonfiction (#120)",to-read,,,,0,0
54209,Ever Since Darwin: Reflections in Natural History,Stephen Jay Gould,"Gould, Stephen Jay",,"=""0393308189""","=""9780393308181""",0,4.13,W. W. Norton & Company,Paperback,285,1992,1977,,2024/05/17,"to-read, nonfiction","to-read (#126), nonfiction (#92)",to-read,,,,0,0
204523,Wholeness and the Implicate Order,David Bohm,"Bohm, David",,"=""0415289793""","=""9780415289795""",0,4.24,Routledge,Paperback,284,2002,1980,,2024/05/17,"to-read, philosophy-religion","to-read (#125), philosophy-religion (#33)",to-read,,,,0,0
1837402,How To Get Rich,Felix Dennis,"Dennis, Felix",,"=""009192166X""","=""9780091921668""",0,4.17,Ebury Press,Paperback,277,2007,2006,,2024/05/14,"to-read, nonfiction","to-read (#70), nonfiction (#50)",to-read,,,,0,0
75665850,Clear Thinking: Turning Ordinary Moments into Extraordinary Results,Shane Parrish,"Parrish, Shane",,"=""0593086112""","=""9780593086124""",0,4.18,Portfolio,Kindle Edition,284,2023,2023,,2024/05/12,"to-read, nonfiction","to-read (#41), nonfiction (#30)",to-read,,,,0,0
200179688,"The Anthology of Balaji: A Guide to Technology, Truth, and Building the Future",Eric Jorgenson,"Jorgenson, Eric",Balaji Srinivasan,"=""1544542909""","=""9781544542904""",0,4.19,Smart Friends Publishing,Kindle Edition,273,2023,,,2024/05/12,"to-read, nonfiction","to-read (#27), nonfiction (#22)",to-read,,,,0,0
76865,Good to Great: Why Some Companies Make the Leap... and Others Don't,Jim Collins,"Collins, Jim",,"=""0066620996""","=""9780066620992""",0,4.12,Harper Business,Hardcover,300,2001,2001,,2024/05/12,"to-read, nonfiction","to-read (#22), nonfiction (#19)",to-read,,,,0,0
10127019,The Lean Startup,Eric Ries,"Ries, Eric",,"=""0307887898""","=""9780307887894""",0,4.11,Best Business,Hardcover,299,2011,2011,,2024/05/12,"to-read, nonfiction","to-read (#3), nonfiction (#3)",to-read,,,,0,0
505560,"TCP/IP Illustrated, Vol. 1: The Protocols (Addison-Wesley Professional Computing Series)",W. Richard Stevens,"Stevens, W. Richard",,"=""0201633469""","=""9780201633467""",0,4.32,Addison-Wesley Professional,Hardcover,576,1994,1993,,2024/05/25,"to-read, textbooks","to-read (#328), textbooks (#100)",to-read,,,,0,0
85009,Design Patterns: Elements of Reusable Object-Oriented Software,Erich Gamma,"Gamma, Erich","Grady Booch, Richard Helm, Ralph Johnson, John Vlissides","=""0201633612""","=""9780201633610""",0,4.20,Addison-Wesley Professional,Hardcover,416,1994,1994,,2024/05/25,"to-read, textbooks","to-read (#322), textbooks (#94)",to-read,,,,0,0
11724436,The Linux Command Line: A Complete Introduction,William E. Shotts Jr.,"Jr., William E. Shotts",,"=""1593273894""","=""9781593273897""",0,4.38,"No Starch Press, Incorporated",Paperback,480,2012,2012,,2024/05/25,"to-read, textbooks","to-read (#329), textbooks (#101)",to-read,,,,0,0
17374825,Operating Systems: Three Easy Pieces,Remzi H. Arpaci-Dusseau,"Arpaci-Dusseau, Remzi H.",Andrea C. Arpaci-Dusseau,"=""1105979121""","=""9781105979125""",0,4.71,Arpaci-Dusseau Books,Paperback,686,2012,2012,,2024/05/25,"to-read, textbooks","to-read (#325), textbooks (#97)",to-read,,,,0,0
152452,"Introduction to Linear Optimization (Athena Scientific Series in Optimization and Neural Computation, 6)",Dimitris Bertsimas,"Bertsimas, Dimitris",,"=""1886529191""","=""9781886529199""",0,4.06,Athena Scientific,Hardcover,608,1997,1997,,2024/05/25,"to-read, textbooks","to-read (#315), textbooks (#89)",to-read,,,,0,0
1843479,Structural Analysis,Russell C. Hibbeler,"Hibbeler, Russell C.",,"=""0131470892""","=""9780131470897""",0,4.11,Pearson College Div,Hardcover,640,2005,1982,,2024/05/25,"to-read, textbooks","to-read (#318), textbooks (#91)",to-read,,,,0,0
12169041,An Introduction to Functional Programming Through Lambda Calculus,Greg Michaelson,"Michaelson, Greg",,"=""0486478831""","=""9780486478838""",0,4.14,Dover Publications,Paperback,336,2011,1989,,2024/05/25,"to-read, textbooks","to-read (#316), textbooks (#90)",to-read,,,,0,0
2558730,Digital Design and Computer Architecture,David Money Harris,"Harris, David Money",Sarah L. Harris,"=""0123704979""","=""9780123704979""",0,4.37,Morgan Kaufmann,Paperback,592,2007,2007,,2024/05/25,"to-read, textbooks","to-read (#319), textbooks (#92)",to-read,,,,0,0
3892628,Introduction to Robotics: Mechanics and Control,John J. Craig,"Craig, John J.",,"=""0201095289""","=""9780201095289""",0,4.07,Addison-Wesley,Hardcover,464,1989,1985,,2024/05/25,"to-read, textbooks","to-read (#312), textbooks (#87)",to-read,,,,0,0
116164,"Nonlinear Dynamics and Chaos: With Applications to Physics, Biology, Chemistry, and Engineering",Steven H. Strogatz,"Strogatz, Steven H.",,"=""0738204536""","=""9780738204536""",0,4.38,CRC Press,Paperback,497,2000,1994,,2024/05/25,"to-read, textbooks","to-read (#308), textbooks (#84)",to-read,,,,0,0
148009,"The Elements of Statistical Learning: Data Mining, Inference, and Prediction",Trevor Hastie,"Hastie, Trevor","Robert Tibshirani, Jerome Friedman","=""0387952845""","=""9780387952840""",0,4.43,Springer,Hardcover,552,2003,2001,,2024/05/25,"to-read, textbooks","to-read (#309), textbooks (#85)",to-read,,,,0,0
17912916,Data Science for Business: What You Need to Know about Data Mining and Data-Analytic Thinking,Foster Provost,"Provost, Foster",Tom Fawcett,"=""1449361323""","=""9781449361327""",0,4.13,O'Reilly Media,Paperback,413,2013,2013,,2024/05/25,"to-read, textbooks","to-read (#310), textbooks (#86)",to-read,,,,0,0
126988,Solid State Electronic Devices,Ben G. Streetman,"Streetman, Ben G.",Sanjay Banerjee,"=""013149726X""","=""9780131497269""",0,4.04,Pearson College Div,Hardcover,581,2005,1972,,2024/05/25,"to-read, textbooks","to-read (#302), textbooks (#80)",to-read,,,,0,0
153908,Introduction to Quantum Mechanics,David J. Griffiths,"Griffiths, David J.",,"=""0131118927""","=""9780131118928""",0,4.25,Pearson Prentice Hall,Hardcover,468,2004,1994,,2024/05/25,"to-read, textbooks","to-read (#298), textbooks (#76)",to-read,,,,0,0
153910,Quantum Computation and Quantum Information (Cambridge Series on Information and the Natural Sciences),Michael A. Nielsen,"Nielsen, Michael A.",Isaac L. Chuang,"=""0521635039""","=""9780521635035""",0,4.39,Cambridge University Press,Paperback,700,2000,2000,,2024/05/25,"to-read, textbooks","to-read (#297), textbooks (#75)",to-read,,,,0,0
260190,Principles of Quantum Mechanics,Ramamurti Shankar,"Shankar, Ramamurti",,"=""0306447908""","=""9780306447907""",0,4.23,Springer,Hardcover,700,2005,1980,,2024/05/25,"to-read, textbooks","to-read (#299), textbooks (#77)",to-read,,,,0,0
330583,Quantum Mechanics and Path Integrals,Richard P. Feynman,"Feynman, Richard P.",A.R. Hibbs,"=""0070206503""","=""9780070206502""",0,4.32,McGraw-Hill College,Hardcover,365,1965,,,2024/05/25,"to-read, textbooks","to-read (#300), textbooks (#78)",to-read,,,,0,0
3156791,Compliant Mechanisms,Larry L. Howell,"Howell, Larry L.",,"=""047138478X""","=""9780471384786""",0,4.31,Wiley-Interscience,Hardcover,480,2001,2001,,2024/05/25,"to-read, textbooks","to-read (#303), textbooks (#81)",to-read,,,,0,0
4099,The Pragmatic Programmer: From Journeyman to Master,Dave         Thomas,"Thomas, Dave","Andy   Hunt, Ward Cunningham","=""020161622X""","=""9780201616224""",0,4.33,Addison-Wesley Professional,Paperback,321,1999,1999,,2024/05/25,"to-read, nonfiction","to-read (#295), nonfiction (#233)",to-read,,,,0,0
45843,Atlas of Human Anatomy,Frank H. Netter,"Netter, Frank H.",,"=""1416033858""","=""9781416033851""",0,4.51,Saunders,Paperback,640,2006,1989,,2024/05/25,"to-read, textbooks","to-read (#293), textbooks (#72)",to-read,,,,0,0
70135,Computer Architecture: A Quantitative Approach,John L. Hennessy,"Hennessy, John L.",David A. Patterson,"=""0123704901""","=""9780123704900""",0,4.12,Morgan Kaufmann,Paperback,704,2006,,,2024/05/25,"to-read, textbooks","to-read (#286), textbooks (#71)",to-read,,,,0,0
145292,Introduction to Electrodynamics,David J. Griffiths,"Griffiths, David J.",,"=""013805326X""","=""9780138053260""",0,4.28,Prentice Hall,Hardcover,576,1999,1981,,2024/05/25,"to-read, textbooks","to-read (#296), textbooks (#74)",to-read,,,,0,0
540346,DNA: The Secret of Life,James D. Watson,"Watson, James D.",Andrew Berry,"=""0375710078""","=""9780375710070""",0,4.11,Knopf,Paperback,464,2003,2002,,2024/05/25,"to-read, textbooks","to-read (#282), textbooks (#69)",to-read,,,,0,0
1051732,"Opticks: Or a Treatise of the Reflections, Refractions, Inflections & Colours of Light-Based on the Fourth Edition London, 1730",Isaac Newton,"Newton, Isaac","Albert Einstein, I. Bernard Cohen","=""0486602052""","=""9780486602059""",0,4.26,Dover Publications,Paperback,406,2012,1704,,2024/05/25,"to-read, textbooks","to-read (#284), textbooks (#70)",to-read,,,,0,0
183819,Sociobiology: The New Synthesis,Edward O. Wilson,"Wilson, Edward O.",,"=""0674002350""","=""9780674002357""",0,4.23,Belknap Press: An Imprint of Harvard University Press,Paperback,720,2000,1975,,2024/05/23,"to-read, textbooks","to-read (#278), textbooks (#67)",to-read,,,,0,0
749063,Experimental Researches in Electricity,Michael Faraday,"Faraday, Michael",,"=""0486435059""","=""9780486435053""",0,4.39,Dover Publications,Paperback,368,2004,1914,,2024/05/23,"to-read, textbooks","to-read (#277), textbooks (#66)",to-read,,,,0,0
303615,"The General Theory of Employment, Interest, and Money (Great Minds)",John Maynard Keynes,"Keynes, John Maynard",,"=""1573921394""","=""9781573921398""",0,3.84,Prometheus,Paperback,423,1997,1935,,2024/05/23,"to-read, textbooks","to-read (#269), textbooks (#63)",to-read,,,,0,0
6482515,"Principia Mathematica, Vol 1",Alfred North Whitehead,"Whitehead, Alfred North",Bertrand Russell,"=""1603861823""","=""9781603861823""",0,4.28,Merchant Books,Paperback,684,2009,1910,,2024/05/23,"to-read, textbooks","to-read (#271), textbooks (#65)",to-read,,,,0,0
42547,"The Autobiography of Martin Luther King, Jr.",Martin Luther King Jr.,"Jr., Martin Luther King",Clayborne Carson,"=""0446676500""","=""9780446676502""",0,4.34,Warner Books,Paperback,400,2001,1986,,2024/05/23,"to-read, nonfiction","to-read (#266), nonfiction (#199)",to-read,,,,0,0
129237,A Theory of Justice,John Rawls,"Rawls, John",,"=""0674017722""","=""9780674017726""",0,3.96,Belknap Press: An Imprint of Harvard University Press,Paperback,824,2005,1971,,2024/05/23,"to-read, philosophy-religion","to-read (#267), philosophy-religion (#91)",to-read,,,,0,0
457264,The Second Sex,Simone de Beauvoir,"Beauvoir, Simone de","H.M. Parshley, Deirdre Bair","=""0679724516""","=""9780679724513""",0,4.18,Vintage,Paperback,746,1989,1949,,2024/05/23,"to-read, nonfiction","to-read (#265), nonfiction (#198)",to-read,,,,0,0
1929234,Introduction to Analysis of the Infinite: Book I,Leonhard Euler,"Euler, Leonhard",,"=""0387968245""","=""9780387968247""",0,4.27,Springer,Hardcover,342,1988,1921,,2024/05/23,"to-read, textbooks","to-read (#264), textbooks (#62)",to-read,,,,0,0
44735,The Elements of Typographic Style,Robert Bringhurst,"Bringhurst, Robert",,"=""0881792063""","=""9780881792065""",0,4.26,Hartley and Marks Publishers,Paperback,352,2004,1992,,2024/05/23,"to-read, nonfiction","to-read (#256), nonfiction (#191)",to-read,,,,0,0
703102,"Compilers: Principles, Techniques, and Tools",Alfred V. Aho,"Aho, Alfred V.","Ravi Sethi, Jeffrey D. Ullman","=""0201100886""","=""9780201100884""",0,4.10,Addison-Wesley Publishing Company,Hardcover,796,1986,1986,,2024/05/23,"to-read, textbooks","to-read (#252), textbooks (#59)",to-read,,,,0,0
43713,Structure and Interpretation of Computer Programs,Harold Abelson,"Abelson, Harold","Gerald Jay Sussman, Julie Sussman","=""0262510871""","=""9780262510875""",0,4.47,The MIT Press,Paperback,657,1996,1984,,2024/05/23,"to-read, textbooks","to-read (#250), textbooks (#57)",to-read,,,,0,0
969320,"Treatise on Electricity and Magnetism, Vol. 1",James Clerk Maxwell,"Maxwell, James Clerk",,"=""0486606368""","=""9780486606361""",0,4.44,Dover Publications,Paperback,560,1954,1873,,2024/05/23,"to-read, textbooks","to-read (#249), textbooks (#56)",to-read,,,,0,0
535739,Dream of the Red Chamber,Cao Xueqin,"Xueqin, Cao",Chi-chen Wang,"=""0385093799""","=""9780385093798""",0,4.18,Anchor,Paperback,329,1958,1761,,2024/05/22,"to-read, fiction","to-read (#244), fiction (#36)",to-read,,,,0,0
15857519,Thought and Language,Lev Semyonovich Vygotsky,"Vygotsky, Lev Semyonovich",Alex Kozulin,"=""026251771X""","=""9780262517713""",0,4.24,MIT Press,Paperback,387,2012,1934,,2024/05/20,"to-read, philosophy-religion","to-read (#213), philosophy-religion (#95)",to-read,,,,0,0
7295063,"Quantum Field Theory in a Nutshell, 2nd Edition (In a nutshell)",A. Zee,"Zee, A.",,"=""0691140340""","=""9780691140346""",0,4.12,Princeton University Press,Hardcover,576,2010,2003,,2024/05/20,"to-read, textbooks","to-read (#207), textbooks (#51)",to-read,,,,0,0
164562,Galois Theory,Ian Stewart,"Stewart, Ian",,"=""1584883936""","=""9781584883937""",0,4.22,Chapman and Hall/CRC,Paperback,328,2003,1989,,2024/05/20,"to-read, textbooks","to-read (#209), textbooks (#53)",to-read,,,,0,0
260142,The Principles Of Quantum Mechanics (International Series Of Monographs On Physics),Paul A.M. Dirac,"Dirac, Paul A.M.",,"=""0198520115""","=""9780198520115""",0,4.42,"Oxford University Press, U.S.A.",Paperback,314,1988,1958,,2024/05/20,"to-read, textbooks","to-read (#208), textbooks (#52)",to-read,,,,0,0
96663,On The Revolutions of Heavenly Spheres (On the Shoulders of Giants),Nicolaus Copernicus,"Copernicus, Nicolaus",Stephen Hawking,"=""0762420219""","=""9780762420216""",0,4.10,Running Press,Paperback,408,2004,1543,,2024/05/20,"to-read, textbooks","to-read (#201), textbooks (#49)",to-read,,,,0,0
436352,Ptolemy's Almagest,Ptolemy,"Ptolemy, Ptolemy","Owen Gingerich, G.J. Toomer, Theon of Alexandria, Hypatia","=""0691002606""","=""9780691002606""",0,4.00,Princeton University Press,Paperback,712,1998,150,,2024/05/20,"to-read, textbooks","to-read (#202), textbooks (#50)",to-read,,,,0,0
719289,Geometry and the Imagination,David Hilbert,"Hilbert, David",Stefan Cohn-Vossen,"=""0821819984""","=""9780821819982""",0,4.53,American Mathematical Society,Hardcover,357,1999,1932,,2024/05/20,"to-read, textbooks","to-read (#200), textbooks (#48)",to-read,,,,0,0
823064,Disquisitiones Arithmeticae,Carl Friedrich Gauß,"Gauß, Carl Friedrich",,"=""0387962549""","=""9780387962542""",0,4.55,Springer,Hardcover,492,1986,1801,,2024/05/20,"to-read, textbooks","to-read (#196), textbooks (#45)",to-read,,,,0,0
1398393,The Works of Archimedes (Dover Books on Mathematics),Archimedes,"Archimedes, Archimedes",Thomas Little Heath,"=""0486420841""","=""9780486420844""",0,4.25,Dover Publications,Paperback,576,2002,-212,,2024/05/20,"to-read, textbooks","to-read (#198), textbooks (#47)",to-read,,,,0,0
449407,Pensées,Blaise Pascal,"Pascal, Blaise","T.S. Eliot, A.J. Krailsheimer, George Iancu Ghidu","=""""","=""""",0,3.94,Penguin Classics,Paperback,334,1995,1670,,2024/05/20,"to-read, philosophy-religion","to-read (#199), philosophy-religion (#40)",to-read,,,,0,0
55881,Pattern Recognition and Machine Learning (Information Science and Statistics),Christopher M. Bishop,"Bishop, Christopher M.",,"=""0387310738""","=""9780387310732""",0,4.32,Springer,Hardcover,738,2006,,,2024/05/19,"to-read, textbooks","to-read (#191), textbooks (#42)",to-read,,,,0,0
359437,Probabilistic Robotics (Intelligent Robotics and Autonomous Agents series),Sebastian Thrun,"Thrun, Sebastian","Wolfram Burgard, Dieter Fox","=""0262201623""","=""9780262201629""",0,4.62,The MIT Press,Hardcover,672,2005,2005,,2024/05/19,"to-read, textbooks","to-read (#189), textbooks (#41)",to-read,,,,0,0
2378167,"An Introduction to Probability Theory and Its Applications, Volume 1",William Feller,"Feller, William",,"=""0471257087""","=""9780471257080""",0,4.31,Wiley,Hardcover,509,1968,1968,,2024/05/19,"to-read, textbooks","to-read (#188), textbooks (#40)",to-read,,,,0,0
24072897,Deep Learning,Ian Goodfellow,"Goodfellow, Ian","Yoshua Bengio, Aaron Courville","=""""","=""""",0,4.44,The MIT Press,ebook,787,2016,2016,,2024/05/19,"to-read, textbooks","to-read (#192), textbooks (#43)",to-read,,,,0,0
112804,"The Essential Gandhi: An Anthology of His Writings on His Life, Work, and Ideas",Mahatma Gandhi,"Gandhi, Mahatma",Louis Fischer,"=""1400030501""","=""9781400030507""",0,4.24,Vintage,Paperback,368,2002,1962,,2024/05/19,"to-read, nonfiction","to-read (#184), nonfiction (#136)",to-read,,,,0,0
17972688,Berkshire Hathaway Letters to Shareholders,Warren Buffett,"Buffett, Warren",Max Olson,"=""1595910778""","=""9781595910776""",0,4.63,Max Olson,Paperback,730,2013,2016,,2024/05/19,"to-read, nonfiction","to-read (#181), nonfiction (#133)",to-read,,,,0,0
10631,Sam Walton: Made In America,Sam Walton,"Walton, Sam",John Huey,"=""0553562835""","=""9780553562835""",0,4.15,BANTAM BOOKS,Paperback,346,1993,,,2024/05/19,"to-read, nonfiction","to-read (#175), nonfiction (#128)",to-read,,,,0,0
25574,Common Stocks and Uncommon Profits and Other Writings,Philip A. Fisher,"Fisher, Philip A.",Kenneth L. Fisher,"=""0471445509""","=""9780471445500""",0,4.14,Wiley,Paperback,320,2003,1957,,2024/05/19,"to-read, nonfiction","to-read (#178), nonfiction (#131)",to-read,,,,0,0
6617037,"Debt: The First 5,000 Years",David Graeber,"Graeber, David",,"=""1933633867""","=""9781933633862""",0,4.21,Melville House,Hardcover,534,2011,2011,,2024/05/19,"to-read, nonfiction","to-read (#179), nonfiction (#132)",to-read,,,,0,0
62792694,What I Learned About Investing from Darwin,Pulak Prasad,"Prasad, Pulak",,"=""0231203489""","=""9790231203486""",0,4.57,Columbia Business School Publishing,Hardcover,328,2023,,,2024/05/19,"to-read, nonfiction","to-read (#173), nonfiction (#126)",to-read,,,,0,0
617702,In the Realm of Hungry Ghosts: Close Encounters with Addiction,Gabor Maté,"Maté, Gabor",,"=""0676977405""","=""9780676977400""",0,4.49,Knopf Canada,Hardcover,480,2008,2007,,2024/05/19,"to-read, nonfiction","to-read (#165), nonfiction (#121)",to-read,,,,0,0
208123,The Tibetan Book of the Dead,Padmasambhava,"Padmasambhava, Padmasambhava","Karma-glin-pa, Gyurme Dorje, Graham Coleman, Thupten Jinpa, Dalai Lama XIV, Namka Chokyi Gyatso","=""0143104942""","=""9780143104940""",0,4.16,Penguin Classics,Paperback,535,2007,1350,,2024/05/19,"to-read, philosophy-religion","to-read (#160), philosophy-religion (#100)",to-read,,,,0,0
99955,"Common Sense, The Rights of Man and Other Essential Writings",Thomas Paine,"Paine, Thomas","Jack Fruchtman Jr., Sidney Hook","=""0451528891""","=""9780451528896""",0,4.14,Signet,Paperback,416,2003,1776,,2024/05/19,"to-read, nonfiction","to-read (#161), nonfiction (#118)",to-read,,,,0,0
38124688,How to Stay in Love: A Divorce Lawyer's Guide to Staying Together,James J. Sexton,"Sexton, James J.",,"=""1250130786""","=""9781250130785""",0,4.22,Henry Holt and Co.,Kindle Edition,318,2018,2018,,2024/05/19,"to-read, nonfiction","to-read (#163), nonfiction (#119)",to-read,,,,0,0
44882,Code: The Hidden Language of Computer Hardware and Software,Charles Petzold,"Petzold, Charles",,"=""0735611319""","=""9780735611313""",0,4.40,Microsoft Press,Paperback,396,2000,1999,,2024/05/19,"to-read, nonfiction","to-read (#153), nonfiction (#112)",to-read,,,,0,0
19065131,One Two Three . . . Infinity: Facts and Speculations of Science (Dover Books on Mathematics),George Gamow,"Gamow, George",,"=""0486135179""","=""9780486135175""",0,4.21,Dover Publications,Kindle Edition,384,2012,1947,,2024/05/19,"to-read, nonfiction","to-read (#158), nonfiction (#116)",to-read,,,,0,0
27333,Silent Spring,Rachel Carson,"Carson, Rachel",,"=""0618249060""","=""9780618249060""",0,4.05,Mariner Books,Paperback,378,2022,1962,,2024/05/19,"to-read, nonfiction","to-read (#159), nonfiction (#117)",to-read,,,,0,0
38714388,The Dichotomy of Leadership: Balancing the Challenges of Extreme Ownership to Lead and Win,Jocko Willink,"Willink, Jocko",Leif Babin,"=""1250195780""","=""9781250195784""",0,4.37,St. Martin's Press,ebook,320,2018,2018,,2024/05/19,"to-read, nonfiction","to-read (#154), nonfiction (#113)",to-read,,,,0,0
53113287,Leadership Strategy and Tactics: Field Manual,Jocko Willink,"Willink, Jocko",,"=""""","=""""",0,4.41,St. Martin's Press,Hardcover,320,2020,2020,,2024/05/19,"to-read, nonfiction","to-read (#155), nonfiction (#114)",to-read,,,,0,0
228568,The Eighth Day of Creation,Horace Freeland Judson,"Judson, Horace Freeland",,"=""0879694785""","=""9780879694784""",0,4.57,Cold Spring Harbor Laboratory Press,Paperback,720,1996,1979,,2024/05/19,"to-read, textbooks","to-read (#152), textbooks (#38)",to-read,,,,0,0
90078,An Essay Concerning Human Understanding,John Locke,"Locke, John",,"=""1406790273""","=""9781406790276""",0,3.86,Read Books,Paperback,355,2007,1690,,2024/05/18,"to-read, philosophy-religion","to-read (#151), philosophy-religion (#90)",to-read,,,,0,0
400716,Introduction to the Theory of Computation,Michael Sipser,"Sipser, Michael",,"=""0534950973""","=""9780534950972""",0,4.24,Course Technology,Hardcover,431,2006,1996,,2024/05/18,"to-read, textbooks","to-read (#144), textbooks (#37)",to-read,,,,0,0
18288,Critique of Pure Reason,Immanuel Kant,"Kant, Immanuel","Paul Guyer, Allen W. Wood","=""0521657296""","=""9780521657297""",0,3.96,Cambridge University Press,Paperback,785,1999,1781,,2024/05/18,"to-read, philosophy-religion","to-read (#147), philosophy-religion (#87)",to-read,,,,0,0
112243,Concrete Mathematics: A Foundation for Computer Science,Ronald Graham,"Graham, Ronald","Donald Knuth, Oren Patashnik","=""0201558025""","=""9780201558029""",0,4.34,Addison-Wesley Professional,Hardcover,672,1994,1988,,2024/05/18,"to-read, textbooks","to-read (#139), textbooks (#33)",to-read,,,,0,0
112252,Types and Programming Languages (Mit Press),Benjamin C. Pierce,"Pierce, Benjamin C.",,"=""0262162091""","=""9780262162098""",0,4.28,MIT Press,Hardcover,623,2002,2002,,2024/05/18,"to-read, textbooks","to-read (#142), textbooks (#35)",to-read,,,,0,0
201357,"Information Theory, Inference, and Learning Algorithms",David J.C. MacKay,"MacKay, David J.C.",,"=""0521642981""","=""9780521642989""",0,4.52,Cambridge University Press,Paperback,642,2003,2002,,2024/05/18,"to-read, textbooks","to-read (#143), textbooks (#36)",to-read,,,,0,0
1045550,The Code Book: The Science of Secrecy from Ancient Egypt to Quantum Cryptography,Simon Singh,"Singh, Simon",,"=""1857028791""","=""9781857028799""",0,4.30,Fourth Estate,Hardcover,415,1999,1999,,2024/05/18,"to-read, nonfiction","to-read (#136), nonfiction (#100)",to-read,,,,0,0
116185,Journey through Genius: The Great Theorems of Mathematics,William Dunham,"Dunham, William",,"=""014014739X""","=""9780140147391""",0,4.22,Penguin Books,Paperback,320,1991,1990,,2024/05/18,"to-read, textbooks","to-read (#137), textbooks (#32)",to-read,,,,0,0
3735293,Clean Code: A Handbook of Agile Software Craftsmanship,Robert C. Martin,"Martin, Robert C.",,"=""0132350882""","=""9780132350884""",0,4.37,Pearson,Paperback,464,2008,2007,,2024/05/18,"to-read, textbooks","to-read (#141), textbooks (#34)",to-read,,,,0,0
6448772,"Quantum: Einstein, Bohr and the Great Debate About the Nature of Reality",Manjit Kumar,"Kumar, Manjit",,"=""1848310358""","=""9781848310353""",0,4.26,Icon Books,Paperback,448,2009,2007,,2024/05/17,"to-read, nonfiction","to-read (#132), nonfiction (#96)",to-read,,,,0,0
11797471,The Idea Factory: Bell Labs and the Great Age of American Innovation,Jon Gertner,"Gertner, Jon",,"=""1594203288""","=""9781594203282""",0,4.20,Penguin Press,Hardcover,432,2012,2012,,2024/05/18,"to-read, nonfiction","to-read (#134), nonfiction (#98)",to-read,,,,0,0
19395553,Our Mathematical Universe: My Quest for the Ultimate Nature of Reality,Max Tegmark,"Tegmark, Max",,"=""1846144760""","=""9781846144769""",0,4.19,Allen Lane,Hardcover,432,2014,2012,,2024/05/17,"to-read, nonfiction","to-read (#133), nonfiction (#97)",to-read,,,,0,0
31850765,Energy and Civilization: A History,Vaclav Smil,"Smil, Vaclav",,"=""0262035774""","=""9780262035774""",0,4.10,The MIT Press,Hardcover,552,2017,2017,,2024/05/18,"to-read, nonfiction","to-read (#135), nonfiction (#99)",to-read,,,,0,0
265438,Scholar Warrior: An Introduction to the Tao in Everyday Life,Ming-Dao Deng,"Deng, Ming-Dao",,"=""0062502328""","=""9780062502322""",0,4.10,HarperOne,Paperback,368,1990,1990,,2024/05/17,"to-read, nonfiction","to-read (#127), nonfiction (#93)",to-read,,,,0,0
1027910,Life on Earth,David Attenborough,"Attenborough, David",,"=""0316057452""","=""9780316057455""",0,4.46,"Little, Brown, and Company",Hardcover,319,1979,1979,,2024/05/17,"to-read, to-listen","to-read (#128), to-listen (#1)",to-read,,,,0,0
61535,The Selfish Gene,Richard Dawkins,"Dawkins, Richard",,"=""0199291152""","=""9780199291151""",0,4.16,Oxford University Press,Paperback,360,2006,1976,,2024/05/17,"to-read, nonfiction","to-read (#124), nonfiction (#91)",to-read,,,,0,0
177068,The Fabric of Reality: The Science of Parallel Universes--and Its Implications,David Deutsch,"Deutsch, David",,"=""014027541X""","=""9780140275414""",0,4.14,Penguin Books,Paperback,390,1998,1996,,2024/05/16,"to-read, textbooks","to-read (#122), textbooks (#30)",to-read,,,,0,0
319006,At Home in the Universe: The Search for the Laws of Self-Organization and Complexity,Stuart A. Kauffman,"Kauffman, Stuart A.",,"=""0195111303""","=""9780195111309""",0,4.02,Oxford University Press,Paperback,336,1996,1995,,2024/05/16,"to-read, nonfiction","to-read (#120), nonfiction (#88)",to-read,,,,0,0
13335561,A Cultural History of Physics,Karoly Simonyi,"Simonyi, Karoly",,"=""1568813295""","=""9781568813295""",0,4.52,A K Peters/CRC Press,Hardcover,636,2012,2012,,2024/05/16,"to-read, nonfiction","to-read (#121), nonfiction (#89)",to-read,,,,0,0
818063,Calculus Made Easy,Silvanus Phillips Thompson,"Thompson, Silvanus Phillips",Martin Gardner,"=""0312185480""","=""9780312185480""",0,4.24,St. Martin's Press,Hardcover,336,1998,1910,,2024/05/16,"to-read, textbooks","to-read (#113), textbooks (#29)",to-read,,,,0,0
2432168,War Nerd,Gary Brecher,"Brecher, Gary",,"=""0979663687""","=""9780979663680""",0,4.13,Catapult,Paperback,328,2008,2008,,2024/05/16,"to-read, nonfiction","to-read (#116), nonfiction (#86)",to-read,,,,0,0
22876442,No bullshit guide to math and physics,Ivan Savov,"Savov, Ivan",,"=""0992001005""","=""9780992001001""",0,4.32,Minireference Co.,Paperback,445,2014,2010,,2024/05/16,"to-read, textbooks","to-read (#112), textbooks (#28)",to-read,,,,0,0
34272478,Americana: A 400-Year History of American Capitalism,Bhu Srinivasan,"Srinivasan, Bhu",,"=""0399563792""","=""9780399563799""",0,4.39,Penguin Press,Hardcover,576,2017,2017,,2024/05/16,"to-read, nonfiction","to-read (#115), nonfiction (#85)",to-read,,,,0,0
28815,Influence: The Psychology of Persuasion,Robert B. Cialdini,"Cialdini, Robert B.",,"=""006124189X""","=""9780061241895""",0,4.22,Harper Business,Paperback,320,2006,1984,,2024/05/16,"to-read, nonfiction","to-read (#105), nonfiction (#77)",to-read,,,,0,0
82256,The Sovereign Individual: Mastering the Transition to the Information Age,James Dale Davidson,"Davidson, James Dale",William Rees-Mogg,"=""0684832720""","=""9780684832722""",0,4.19,Touchstone,Paperback,448,1999,1997,,2024/05/16,"to-read, nonfiction","to-read (#104), nonfiction (#76)",to-read,,,,0,0
1820055,"Good Calories, Bad Calories: Challenging the Conventional Wisdom on Diet, Weight Control, and Disease",Gary Taubes,"Taubes, Gary",,"=""1400040787""","=""9781400040780""",0,4.17,Knopf,Hardcover,601,2007,2004,,2024/05/16,"to-read, nonfiction","to-read (#109), nonfiction (#81)",to-read,,,,0,0
18240286,"Faraday, Maxwell, and the Electromagnetic Field: How Two Men Revolutionized Physics",Nancy  Forbes,"Forbes, Nancy",Basil Mahon,"=""1616149426""","=""9781616149420""",0,4.27,Prometheus,Hardcover,328,2014,2014,,2024/05/16,"to-read, nonfiction","to-read (#107), nonfiction (#79)",to-read,,,,0,0
17274,Feynman Lectures On Computation (Frontiers in Physics),Richard P. Feynman,"Feynman, Richard P.",,"=""0738202967""","=""9780738202969""",0,4.25,Westview Press,Paperback,320,2000,1996,,2024/05/15,"to-read, textbooks","to-read (#99), textbooks (#27)",to-read,,,,0,0
52200318,"The Great Mental Models Volume 2: Physics, Chemistry and Biology",Shane Parrish,"Parrish, Shane",Rhiannon Beaubien,"=""1999449037""","=""9781999449032""",0,4.16,Latticework Publishing Inc.,Hardcover,397,2019,2019,,2024/05/15,"to-read, nonfiction","to-read (#97), nonfiction (#71)",to-read,,,,0,0
57016829,The Great Mental Models Volume 3: Systems and Mathematics,Rhiannon Beaubien,"Beaubien, Rhiannon",Rosie Leizrowice,"=""1999449061""","=""9781999449063""",0,4.24,Latticework Publishing Inc.,Hardcover,373,2021,,,2024/05/15,"to-read, nonfiction","to-read (#101), nonfiction (#74)",to-read,,,,0,0
268266,Thinking Physics: Understandable Practical Reality,Lewis Carroll Epstein,"Epstein, Lewis Carroll",,"=""0935218084""","=""9780935218084""",0,4.40,"Insight Press, San Francisco, CA",Paperback,582,2002,1989,,2024/05/14,"to-read, textbooks","to-read (#87), textbooks (#25)",to-read,,,,0,0
10483171,The Beginning of Infinity: Explanations That Transform the World,David Deutsch,"Deutsch, David",,"=""0670022756""","=""9780670022755""",0,4.18,Viking,Hardcover,487,2011,2011,,2024/05/14,"to-read, textbooks","to-read (#88), textbooks (#26)",to-read,,,,0,0
38315,Fooled by Randomness: The Hidden Role of Chance in Life and in the Markets (Incerto),Nassim Nicholas Taleb,"Taleb, Nassim Nicholas",,"=""0812975219""","=""9780812975215""",0,4.08,Random House Trade Paperbacks,Paperback,368,2005,2001,,2024/05/14,"to-read, nonfiction","to-read (#82), nonfiction (#60)",to-read,,,,0,0
13530973,Antifragile: Things That Gain from Disorder,Nassim Nicholas Taleb,"Taleb, Nassim Nicholas",,"=""1400067820""","=""9781400067824""",0,4.10,Random House,Hardcover,426,2012,2012,,2024/05/14,"to-read, nonfiction","to-read (#83), nonfiction (#61)",to-read,,,,0,0
16176,The Red Queen: Sex and the Evolution of Human Nature,Matt Ridley,"Ridley, Matt",,"=""0060556579""","=""9780060556570""",0,4.05,Harper Perennial (HarperCollins),Paperback,405,2003,1993,,2024/05/14,"to-read, nonfiction","to-read (#78), nonfiction (#56)",to-read,,,,0,0
4591,Genome: The Autobiography of a Species in 23 Chapters,Matt Ridley,"Ridley, Matt",,"=""0060894083""","=""9780060894085""",0,4.06,Harper Perennial,Paperback,344,2006,1999,,2024/05/14,"to-read, nonfiction","to-read (#77), nonfiction (#55)",to-read,,,,0,0
1995421,Seeking Wisdom: From Darwin To Munger,Peter Bevelin,"Bevelin, Peter",,"=""1578644283""","=""9781578644285""",0,4.22,Post Scriptum AB,Hardcover,318,2007,2003,,2024/05/14,"to-read, nonfiction","to-read (#74), nonfiction (#53)",to-read,,,,0,0
7776209,The Rational Optimist: How Prosperity Evolves,Matt Ridley,"Ridley, Matt",,"=""006145205X""","=""9780061452055""",0,3.97,Harper,Hardcover,448,2010,2010,,2024/05/14,"to-read, nonfiction","to-read (#79), nonfiction (#57)",to-read,,,,0,0
38412,Fermat's Enigma,Simon Singh,"Singh, Simon",John Lynch,"=""0385493622""","=""9780385493628""",0,4.30,Anchor,Paperback,315,1998,1997,,2024/05/14,"to-read, nonfiction","to-read (#71), nonfiction (#51)",to-read,,,,0,0
64582,Chaos: Making a New Science,James Gleick,"Gleick, James",,"=""0140092501""","=""9780140092509""",0,4.04,Penguin Group,Paperback,352,1988,1987,,2024/05/14,"to-read, textbooks","to-read (#59), textbooks (#21)",to-read,,,,0,0
203409,Security Analysis: The Classic 1951 Edition,Benjamin Graham,"Graham, Benjamin",,"=""0071448209""","=""9780071448208""",0,4.30,McGraw Hill,Hardcover,784,2004,1934,,2024/05/14,"to-read, textbooks","to-read (#64), textbooks (#22)",to-read,,,,0,0
407999,Competitive Strategy: Techniques for Analyzing Industries and Competitors,Michael E. Porter,"Porter, Michael E.",,"=""0684841487""","=""9780684841489""",0,4.17,Free Press,Hardcover,397,1998,1980,,2024/05/14,"to-read, nonfiction","to-read (#63), nonfiction (#43)",to-read,,,,0,0
18693655,A Mind for Numbers: How to Excel at Math and Science (Even If You Flunked Algebra),Barbara Oakley,"Oakley, Barbara",,"=""039916524X""","=""9780399165245""",0,4.20,The Penguin Group,Paperback,336,2014,2014,,2024/05/14,"to-read, nonfiction","to-read (#62), nonfiction (#42)",to-read,,,,0,0
31170723,Behave: The Biology of Humans at Our Best and Worst,Robert M. Sapolsky,"Sapolsky, Robert M.",,"=""1594205078""","=""9781594205071""",0,4.39,Penguin Press,Hardcover,790,2017,2017,,2024/05/14,"to-read, nonfiction","to-read (#66), nonfiction (#46)",to-read,,,,0,0
36200111,Tribe Of Mentors: Short Life Advice from the Best in the World,Timothy Ferriss,"Ferriss, Timothy",,"=""132899497X""","=""9781328994974""",0,4.07,Harper Business,Kindle Edition,561,2017,2017,,2024/05/14,"to-read, nonfiction","to-read (#60), nonfiction (#40)",to-read,,,,0,0
56587388,"How the World Really Works: A Scientist's Guide to Our Past, Present and Future",Vaclav Smil,"Smil, Vaclav",,"=""0241454409""","=""9780241454404""",0,3.96,Viking,Paperback,326,2022,2022,,2024/05/14,"to-read, nonfiction","to-read (#65), nonfiction (#45)",to-read,,,,0,0
24113,"Gödel, Escher, Bach: An Eternal Golden Braid",Douglas R. Hofstadter,"Hofstadter, Douglas R.",,"=""0465026567""","=""9780465026562""",0,4.29,Basic Books,Paperback,777,1999,1979,,2024/05/14,"to-read, philosophy-religion","to-read (#57), philosophy-religion (#86)",to-read,,,,0,0
76401,Bury My Heart at Wounded Knee: An Indian History of the American West,Dee Brown,"Brown, Dee",,"=""0805066691""","=""9780805066692""",0,4.26,"Henry Holt and Company, LLC",Paperback,509,2001,1970,,2024/05/14,"to-read, nonfiction","to-read (#55), nonfiction (#35)",to-read,,,,0,0
25666050,Algorithms to Live By: The Computer Science of Human Decisions,Brian  Christian,"Christian, Brian",Tom  Griffiths,"=""1627790365""","=""9781627790369""",0,4.13,Henry Holt and Co.,Hardcover,368,2016,2016,,2024/05/14,"to-read, nonfiction","to-read (#58), nonfiction (#38)",to-read,,,,0,0
21,A Short History of Nearly Everything,Bill Bryson,"Bryson, Bill",,"=""076790818X""","=""9780767908184""",0,4.22,Crown,Paperback,544,2004,2003,,2024/05/14,"to-read, nonfiction","to-read (#53), nonfiction (#33)",to-read,,,,0,0
3109,The Omnivore's Dilemma: A Natural History of Four Meals,Michael Pollan,"Pollan, Michael",,"=""1594200823""","=""9781594200823""",0,4.19,The Penguin Press,Hardcover,450,2006,2006,,2024/05/14,"to-read, nonfiction","to-read (#54), nonfiction (#34)",to-read,,,,0,0
22463,The Origin of Species,Charles Darwin,"Darwin, Charles",,"=""""","=""""",0,4.01,Castle,Hardcover,703,2004,1859,,2024/05/12,"to-read, textbooks","to-read (#44), textbooks (#20)",to-read,,,,0,0
4866,How to Stop Worrying and Start Living: Time-Tested Methods for Conquering Worry (Dale Carnegie Books),Dale Carnegie,"Carnegie, Dale",,"=""0671035975""","=""9780671035976""",0,4.16,Gallery Books,Paperback,358,2004,1944,,2024/05/12,"to-read, nonfiction","to-read (#36), nonfiction (#28)",to-read,,,,0,0
144409,From Third World to First: The Singapore Story: 1965-2000,Lee Kuan Yew,"Yew, Lee Kuan",Henry Kissinger,"=""0060197765""","=""9780060197766""",0,4.46,Harper,Hardcover,752,2000,2000,,2024/05/12,"to-read, nonfiction","to-read (#28), nonfiction (#23)",to-read,,,,0,0
639864,Autobiography of a Yogi,Paramahansa Yogananda,"Yogananda, Paramahansa",,"=""0876120834""","=""9780876120835""",0,4.25,Self-Realization Fellowship,Paperback,503,2000,1946,,2024/05/12,"to-read, nonfiction","to-read (#32), nonfiction (#26)",to-read,,,,0,0
52962238,Principles for Dealing with the Changing World Order: Why Nations Succeed and Fail,Ray Dalio,"Dalio, Ray",,"=""1982160276""","=""9781982160272""",0,4.28,Avid Reader Press / Simon & Schuster,Hardcover,576,2021,2021,,2024/05/12,"to-read, nonfiction","to-read (#25), nonfiction (#20)",to-read,,,,0,0
944652,Poor Charlie's Almanack: The Wit and Wisdom of Charles T. Munger,Charles T. Munger,"Munger, Charles T.",Peter E. Kaufman,"=""157864366X""","=""9781578643660""",0,4.41,Donning Co Pub,Hardcover,512,2006,2005,,2024/05/12,"to-read, nonfiction","to-read (#18), nonfiction (#18)",to-read,,,,0,0
1842,"Guns, Germs, and Steel: The Fates of Human Societies",Jared Diamond,"Diamond, Jared",,"=""0739467352""","=""9780739467350""",0,4.04,W.W. Norton & Company,Paperback,498,2005,1997,,2024/05/12,"to-read, nonfiction","to-read (#17), nonfiction (#17)",to-read,,,,0,0
242472,The Black Swan: The Impact of the Highly Improbable,Nassim Nicholas Taleb,"Taleb, Nassim Nicholas",,"=""1400063515""","=""9781400063512""",0,3.96,Random House ,Hardcover,480,2007,2007,,2024/05/12,"to-read, nonfiction","to-read (#10), nonfiction (#10)",to-read,,,,0,0
23692271,Sapiens: A Brief History of Humankind,Yuval Noah Harari,"Harari, Yuval Noah",,"=""""","=""""",0,4.34,Vintage,Paperback,512,2015,2011,,2024/05/12,"to-read, nonfiction","to-read (#16), nonfiction (#16)",to-read,,,,0,0
23848190,Extreme Ownership: How U.S. Navy SEALs Lead and Win,Jocko Willink,"Willink, Jocko",Leif Babin,"=""1250067057""","=""9781250067050""",0,4.25,St. Martin's Press,Hardcover,320,2015,2015,,2024/05/12,"to-read, nonfiction","to-read (#13), nonfiction (#13)",to-read,,,,0,0
40121378,Atomic Habits: An Easy & Proven Way to Build Good Habits & Break Bad Ones,James Clear,"Clear, James",,"=""""","=""""",0,4.33,Avery,Kindle Edition,319,2018,2018,,2024/05/12,"to-read, nonfiction","to-read (#11), nonfiction (#11)",to-read,,,,0,0
106835,The Intelligent Investor,Benjamin Graham,"Graham, Benjamin","Jason Zweig, Warren Buffett","=""0060555661""","=""9780060555665""",0,4.24,Harper Business,Paperback,623,2006,1949,,2024/05/12,"to-read, nonfiction","to-read (#8), nonfiction (#8)",to-read,,,,0,0
4122,"Built to Last: Successful Habits of Visionary Companies (Good to Great, 2)",Jim Collins,"Collins, Jim",Jerry I. Porras,"=""0060566108""","=""9780060566104""",0,4.06,Harper Business,Hardcover,368,2004,1994,,2024/05/12,"to-read, nonfiction","to-read (#6), nonfiction (#6)",to-read,,,,0,0
2615,The Innovator's Dilemma: The Revolutionary Book that Will Change the Way You Do Business,Clayton M. Christensen,"Christensen, Clayton M.",,"=""0060521996""","=""9780060521998""",0,4.05,Collins,Paperback,320,2003,1997,,2024/05/12,"to-read, nonfiction","to-read (#4), nonfiction (#4)",to-read,,,,0,0
9512985,The Personal MBA: Master the Art of Business,Josh Kaufman,"Kaufman, Josh",,"=""1591843529""","=""9781591843528""",0,4.11,Portfolio,Hardcover,416,2010,2010,,2024/05/12,"to-read, nonfiction","to-read (#5), nonfiction (#5)",to-read,,,,0,0
18077903,"Creativity, Inc.: Overcoming the Unseen Forces That Stand in the Way of True Inspiration",Ed Catmull,"Catmull, Ed",Amy    Wallace,"=""0812993012""","=""9780812993011""",0,4.22,Random House,Hardcover,368,2014,2014,,2024/05/12,"to-read, nonfiction","to-read (#7), nonfiction (#7)",to-read,,,,0,0
17660462,The Everything Store: Jeff Bezos and the Age of Amazon,Brad Stone,"Stone, Brad",,"=""0316219266""","=""9780316219266""",0,4.14,"Little, Brown and Company",Hardcover,384,2013,2013,,2024/05/12,"to-read, nonfiction","to-read (#1), nonfiction (#1)",to-read,,,,0,0
83847,Computer Networking: A Top-Down Approach,James F. Kurose,"Kurose, James F.",Keith W. Ross,"=""0321497708""","=""9780321497703""",0,4.07,Addison Wesley,Hardcover,880,2007,2000,,2024/05/25,"to-read, textbooks","to-read (#327), textbooks (#99)",to-read,,,,0,0
166195,Modern Operating Systems,Andrew S. Tanenbaum,"Tanenbaum, Andrew S.",,"=""0130313580""","=""9780130313584""",0,4.15,Prentice Hall,Hardcover,960,2001,1992,,2024/05/25,"to-read, textbooks","to-read (#324), textbooks (#96)",to-read,,,,0,0
83833,Operating System Concepts,Abraham Silberschatz,"Silberschatz, Abraham","Peter B. Galvin, Greg Gagne","=""0471694665""","=""9780471694663""",0,3.91,John Wiley & Sons,Hardcover,921,2004,1985,,2024/05/25,"to-read, textbooks","to-read (#323), textbooks (#95)",to-read,,,,0,0
227119,Understanding the Linux Kernel,Daniel P. Bovet,"Bovet, Daniel P.",Marco Cesati,"=""0596005652""","=""9780596005658""",0,4.12,O'Reilly Media,Paperback,942,2005,2000,,2024/05/25,"to-read, textbooks","to-read (#326), textbooks (#98)",to-read,,,,0,0
241287,Mechanical Engineering Design,Joseph Edward Shigley,"Shigley, Joseph Edward",Richard G. Budynas,"=""0072921935""","=""9780072921939""",0,4.22,McGraw-Hill Science/Engineering/Math,Hardcover,1056,2003,1972,,2024/05/25,"to-read, textbooks","to-read (#317), textbooks (#17)",to-read,,,,0,0
908047,"Speech and Language Processing: An Introduction to Natural Language Processing, Computational Linguistics and Speech Recognition",Dan Jurafsky,"Jurafsky, Dan",James H. Martin,"=""0130950696""","=""9780130950697""",0,4.28,Prentice Hall,Hardcover,934,2000,2000,,2024/05/25,"to-read, textbooks","to-read (#314), textbooks (#88)",to-read,,,,0,0
15857489,Machine Learning: A Probabilistic Perspective,Kevin P. Murphy,"Murphy, Kevin P.",,"=""0262018020""","=""9780262018029""",0,4.34,The MIT Press,Hardcover,1104,2012,,,2024/05/25,"to-read, textbooks","to-read (#313), textbooks (#12)",to-read,,,,0,0
153914,An Introduction To Quantum Field Theory (Frontiers in Physics),Michael E. Peskin,"Peskin, Michael E.",Daniel V. Schroeder,"=""0201503972""","=""9780201503975""",0,4.18,CRC Press,Hardcover,864,1995,1994,,2024/05/25,"to-read, textbooks","to-read (#301), textbooks (#79)",to-read,,,,0,0
8683,Robbins and Cotran Pathologic Basis of Disease,Vinay   Kumar,"Kumar, Vinay","Nelso Fausto, Abul Abbas","=""0721601871""","=""9780721601878""",0,4.27,Saunders,Hardcover,1525,2004,1974,,2024/05/25,"to-read, textbooks","to-read (#291), textbooks (#5)",to-read,,,,0,0
170011,Neuroscience: Exploring the Brain,Mark F. Bear,"Bear, Mark F.","Barry W. Connors, Michael A. Paradiso","=""0781760038""","=""9780781760034""",0,4.28,Lippincott Williams and Wilkins,Hardcover,857,2006,1995,,2024/05/25,"to-read, textbooks","to-read (#294), textbooks (#73)",to-read,,,,0,0
202734,Textbook of Medical Physiology,Arthur C. Guyton,"Guyton, Arthur C.",John E. Hall,"=""0721602401""","=""9780721602400""",0,4.25,Saunders,Hardcover,1104,2005,1969,,2024/05/25,"to-read, textbooks","to-read (#292), textbooks (#11)",to-read,,,,0,0
239513,Principles of Biochemistry,Albert L. Lehninger,"Lehninger, Albert L.","David L. Nelson, Michael M. Cox","=""0716743396""","=""9780716743392""",0,4.17,W. H. Freeman,Hardcover,1119,2004,1970,,2024/05/25,"to-read, textbooks","to-read (#290), textbooks (#10)",to-read,,,,0,0
13400,Molecular Biology of the Cell,Bruce Alberts,"Alberts, Bruce","Alexander Johnson, Julian Lewis, Martin Raff, Keith Roberts, Peter Walter","=""0815332181""","=""9780815332183""",0,4.35,Garland Science,Hardcover,1616,2002,1983,,2024/05/25,"to-read, textbooks","to-read (#288), textbooks (#1)",to-read,,,,0,0
515511,Physical Chemistry,Peter   Atkins,"Atkins, Peter",Julio de Paula,"=""0716787598""","=""9780716787594""",0,4.01,W. H. Freeman,Hardcover,1072,2006,1978,,2024/05/25,"to-read, textbooks","to-read (#287), textbooks (#16)",to-read,,,,0,0
145806,Biology,Neil A. Campbell,"Campbell, Neil A.",Jane B. Reece,"=""080537146X""","=""9780805371468""",0,4.15,Benjamin-Cummings Pub Co,Hardcover,1231,2004,1987,,2024/05/25,"to-read, textbooks","to-read (#283), textbooks (#7)",to-read,,,,0,0
1957892,Organic Chemistry,Jonathan Clayden,"Clayden, Jonathan","Nick Greeves, Stuart Warren, Peter Wothers","=""0198503466""","=""9780198503460""",0,4.30,Oxford University Press,Paperback,1536,2000,2000,,2024/05/25,"to-read, textbooks","to-read (#289), textbooks (#4)",to-read,,,,0,0
81912,Human Action: A Treatise on Economics,Ludwig von Mises,"Mises, Ludwig von",Bettina Bien Greaves,"=""0809297434""","=""9780809297436""",0,4.34,Contemporary Books,Hardcover,924,1966,1940,,2024/05/23,"to-read, philosophy-religion","to-read (#272), philosophy-religion (#92)",to-read,,,,0,0
166327,Signals and Systems,Alan V. Oppenheim,"Oppenheim, Alan V.","Alan S. Willsky, S. Hamid Nawab","=""0138147574""","=""9780138147570""",0,4.00,Prentice Hall,Hardcover,987,1996,1982,,2024/05/23,"to-read, textbooks","to-read (#255), textbooks (#60)",to-read,,,,0,0
198582,Microelectronic Circuits,Adel S. Sedra,"Sedra, Adel S.",Kenneth C. Smith,"=""0195142519""","=""9780195142518""",0,4.08,Oxford University Press,Hardcover,1392,2003,1982,,2024/05/23,"to-read, textbooks","to-read (#254), textbooks (#6)",to-read,,,,0,0
569775,The Art of Electronics,Paul Horowitz,"Horowitz, Paul",Winfield Hill,"=""0521370957""","=""9780521370950""",0,4.40,Cambridge University Press,Hardcover,1125,1989,1980,,2024/05/23,"to-read, textbooks","to-read (#253), textbooks (#9)",to-read,,,,0,0
10803540,Algorithms,Robert Sedgewick,"Sedgewick, Robert",Kevin Wayne,"=""032157351X""","=""9780321573513""",0,4.42,Addison-Wesley Professional,Hardcover,976,2011,1983,,2024/05/23,"to-read, textbooks","to-read (#251), textbooks (#58)",to-read,,,,0,0
263440,Physics of Semiconductor Devices,Simon M. Sze,"Sze, Simon M.",Kwok K. Ng,"=""0471143235""","=""9780471143239""",0,4.38,Wiley-Interscience,Hardcover,832,2006,1969,,2024/05/23,"to-read, textbooks","to-read (#247), textbooks (#54)",to-read,,,,0,0
166190,Computer Networks,Andrew S. Tanenbaum,"Tanenbaum, Andrew S.",,"=""0130661023""","=""9780130661029""",0,4.12,Prentice Hall,Hardcover,950,2002,1981,,2024/05/23,"to-read, textbooks","to-read (#248), textbooks (#55)",to-read,,,,0,0
27543,Artificial Intelligence: A Modern Approach,Stuart Russell,"Russell, Stuart",Peter Norvig,"=""0137903952""","=""9780137903955""",0,4.20,Prentice Hall,Hardcover,1080,2003,1994,,2024/05/19,"to-read, textbooks","to-read (#190), textbooks (#14)",to-read,,,,0,0
231083,The Principia : Mathematical Principles of Natural Philosophy,Isaac Newton,"Newton, Isaac","I. Bernard Cohen, Andrew Motte, Anne Whitman","=""0520088174""","=""9780520088177""",0,4.24,University of California Press,Paperback,974,1999,1687,,2024/05/19,"to-read, textbooks","to-read (#156), textbooks (#39)",to-read,,,,0,0
108986,Introduction to Algorithms,Thomas H. Cormen,"Cormen, Thomas H.","Charles E. Leiserson, Ronald L. Rivest, Clifford Stein","=""0262032937""","=""9780262032933""",0,4.35,Mit Pr,Hardcover,1184,2001,1989,,2024/05/18,"to-read, textbooks","to-read (#140), textbooks (#8)",to-read,,,,0,0
10638,The Road to Reality: A Complete Guide to the Laws of the Universe,Roger Penrose,"Penrose, Roger",,"=""0679776311""","=""9780679776314""",0,4.15,Vintage,Paperback,1099,2007,2004,,2024/05/17,"to-read, textbooks","to-read (#130), textbooks (#13)",to-read,,,,0,0
1471873,The Princeton Companion to Mathematics,Timothy Gowers,"Gowers, Timothy","June Barrow-Green, Imre Leader","=""0691118809""","=""9780691118802""",0,4.41,Princeton University Press,Hardcover,1056,2008,2007,,2024/05/16,"to-read, textbooks","to-read (#110), textbooks (#18)",to-read,,,,0,0
5546,The Feynman Lectures on Physics,Richard P. Feynman,"Feynman, Richard P.","Robert B. Leighton, Matthew Sands","=""0805390456""","=""9780805390452""",0,4.61,Addison-Wesley,Hardcover,1552,2006,1964,,2024/05/14,"to-read, textbooks","to-read (#86), textbooks (#2)",to-read,,,,0,0
25698,An Inquiry into the Nature and Causes of the Wealth of Nations,Adam Smith,"Smith, Adam","George J. Stigler, Edwin Cannan","=""0226763749""","=""9780226763743""",0,3.88,University Of Chicago Press,Paperback,1076,1977,1776,,2024/05/12,"to-read, textbooks","to-read (#43), textbooks (#15)",to-read,,,,0,0
11472345,Deng Xiaoping and the Transformation of China,Ezra F. Vogel,"Vogel, Ezra F.",,"=""0674055446""","=""9780674055445""",0,4.46,Belknap Press,Hardcover,928,2011,2011,,2024/05/12,"to-read, nonfiction","to-read (#31), nonfiction (#25)",to-read,,,,0,0
31823677,"Tools of Titans: The Tactics, Routines, and Habits of Billionaires, Icons, and World-Class Performers",Timothy Ferriss,"Ferriss, Timothy",Arnold Schwarzenegger,"=""""","=""""",0,4.10,Houghton Mifflin Harcourt,Kindle Edition,827,2016,2016,,2024/05/12,"to-read, nonfiction","to-read (#14), nonfiction (#14)",to-read,,,,0,0
43852758,How To: Absurd Scientific Advice for Common Real-World Problems,Randall Munroe,"Munroe, Randall",,"=""0525537090""","=""9780525537090""",1,4.16,Riverhead Books,Hardcover,308,2019,2019,2024/05/26,2024/05/14,,,read,,,,1,0
42236512,"Jed Talks #1: Essays, Teachings, Rants & Frivolous Frivolity",Jed McKenna,"McKenna, Jed",,"=""""","=""""",4,4.38,Wisefool Press,Kindle Edition,170,2018,,2023/01/01,2024/05/12,,,read,,,,1,0
25329850,Thing Explainer: Complicated Stuff in Simple Words,Randall Munroe,"Munroe, Randall",,"=""0544668251""","=""9780544668256""",2,4.14,Dey Street Books,Hardcover,64,2015,2015,2024/05/25,2024/05/14,,,read,,,,1,0
21413662,What If?: Serious Scientific Answers to Absurd Hypothetical Questions,Randall Munroe,"Munroe, Randall",,"=""0544272994""","=""9780544272996""",1,4.14,Dey Street Books,Hardcover,303,2014,2014,2024/05/25,2024/05/14,,,read,,,,1,0
26200918,Anything You Want: 40 Lessons for a New Kind of Entrepreneur,Derek Sivers,"Sivers, Derek",,"=""0698409027""","=""9780698409026""",1,4.11,Portfolio,Kindle Edition,88,2015,2011,2024/05/26,2024/05/15,,,read,,,,1,0
12296,The Scarlet Letter,Nathaniel Hawthorne,"Hawthorne, Nathaniel","Nina Baym, Thomas E. Connolly","=""0142437263""","=""9780142437261""",2,3.44,Penguin Books,Paperback,279,2002,1850,2019/01/01,2024/05/12,,,read,,,,1,0
865,The Alchemist,Paulo Coelho,"Coelho, Paulo",Alan R. Clarke,"=""0061122416""","=""9780061122415""",1,3.92,HarperCollins,Paperback,197,1993,1988,2023/01/01,2024/05/12,,,read,,,,1,0
4069,Man’s Search for Meaning,Viktor E. Frankl,"Frankl, Viktor E.","Harold S. Kushner, William J. Winslade, Isle Lasch","=""080701429X""","=""9780807014295""",2,4.37,Beacon Press,Paperback,165,2006,1946,2021/01/01,2024/05/12,,,read,,,,1,0
7624,Lord of the Flies,William Golding,"Golding, William",,"=""0140283331""","=""9780140283334""",2,3.70,Penguin Books ,Paperback,182,1999,1954,2018/01/01,2024/05/12,,,read,,,,1,0
10210,Jane Eyre,Charlotte Brontë,"Brontë, Charlotte",Michael Mason,"=""0142437204""","=""9780142437209""",2,4.15,Penguin,Paperback,532,2003,1847,2019/01/01,2024/05/12,,,read,,,,1,0
375802,"Ender’s Game (Ender's Saga, #1)",Orson Scott Card,"Card, Orson Scott",,"=""0812550706""","=""9780812550702""",5,4.31,Tor,Mass Market Paperback,324,2004,1985,2022/01/01,2024/05/12,,,read,,,,1,0
1420,Hamlet,William Shakespeare,"Shakespeare, William","Harold Bloom, Rex Gibson, Israel Gollancz, Henry Norman Hudson, L.A. Sherman, Max J. Herzberg","=""0521618746""","=""9780521618748""",3,4.02,Cambridge University Press,Paperback,289,2005,1601,2018/01/01,2024/05/12,,,read,,,,1,0
37415,Their Eyes Were Watching God,Zora Neale Hurston,"Hurston, Zora Neale",,"=""0061120065""","=""9780061120060""",1,3.99,Amistad,Paperback,238,2006,1937,2018/01/01,2024/05/12,,,read,,,,1,0
99944,The Bhagavad Gita,Krishna-Dwaipayana Vyasa,"Vyasa, Krishna-Dwaipayana","Juan Mascaró, Simon Brodbeck","=""0140449183""","=""9780140449181""",4,4.19,Penguin,Paperback,160,2003,-400,2022/01/01,2024/05/12,philosophy-religion,philosophy-religion (#98),read,,,,1,0
28862,The Prince,Niccolò Machiavelli,"Machiavelli, Niccolò","Rufus Goodwin, Benjamin Martinez, W.K. Marriott, Denis Daly, Μαρία Κασωτάκη","=""0937832383""","=""9780937832387""",1,3.84,Dante University Press,Paperback,144,2014,1513,2022/01/01,2024/05/12,,,read,,,,1,0
35167685,"""Surely You're Joking, Mr. Feynman!"": Adventures of a Curious Character",Richard P. Feynman,"Feynman, Richard P.","Ralph Leighton, Edward Hutchings","=""0393355624""","=""9780393355628""",5,4.27,W. W. Norton & Company,Paperback,400,2018,1985,2023/01/01,2024/05/12,,,read,,,,1,0
251912,"Vagabond, Volume 1",Takehiko Inoue,"Inoue, Takehiko",,"=""1591160340""","=""9781591160342""",5,4.47,VIZ Media LLC,Paperback,248,2002,1999,2023/01/01,2024/05/13,,,read,,,,1,0
33941,On Grief and Grieving: Finding the Meaning of Grief Through the Five Stages of Loss,Elisabeth Kübler-Ross,"Kübler-Ross, Elisabeth",David Kessler,"=""0743266293""","=""9780743266291""",3,4.32,Scribner,Paperback,256,2007,2005,2023/01/01,2024/05/12,,,read,,,,1,0
248871,"Berserk, Vol. 1 (Berserk, #1)",Kentaro Miura,"Miura, Kentaro",,"=""1593070209""","=""9781593070205""",5,4.48,Dark Horse Manga,Paperback,224,2003,1990,2023/01/01,2024/05/13,,,read,,,,1,0
27660,"The Complete ACOA Sourcebook: Adult Children of Alcoholics at Home, at Work and in Love",Janet Geringer Woititz,"Woititz, Janet Geringer",,"=""1558749608""","=""9781558749603""",5,4.19,Health Communications Inc,Paperback,413,2002,2002,2023/01/01,2024/05/12,,,read,,,,1,0
99107,"Winnie-the-Pooh (Winnie-the-Pooh, #1)",A.A. Milne,"Milne, A.A.",Ernest H. Shepard,"=""0525467564""","=""9780525467564""",3,4.38,Dutton Juvenile,Hardcover,161,2001,1926,2024/05/15,2024/05/13,,,read,,,,1,0
4808763,The Last Question,Isaac Asimov,"Asimov, Isaac","Bob E. Flick, Jim Gallant","=""1884214495""","=""9781884214493""",4,4.53,Ziggurat Productions,Audio CD,9,2007,1956,2024/01/01,2024/05/13,,,read,,,,1,0
44196066,Adventures of a Computational Explorer,Stephen Wolfram,"Wolfram, Stephen",,"=""1579550266""","=""9781579550264""",2,3.70,"Wolfram Media, Inc.",Hardcover,432,2019,2019,2024/05/28,2024/05/27,,,read,,,,1,0
35167718,"""What Do You Care What Other People Think?"": Further Adventures of a Curious Character",Richard P. Feynman,"Feynman, Richard P.",Ralph Leighton,"=""0393355640""","=""9780393355642""",4,4.19,W. W. Norton & Company,Paperback,288,2018,1988,2024/05/16,2024/05/14,,,read,,,,1,0
49099937,No Rules Rules: Netflix and the Culture of Reinvention,Reed Hastings,"Hastings, Reed",Erin Meyer,"=""0593152387""","=""9780593152386""",2,4.27,Random House Large Print,Paperback,464,2020,2020,2024/01/01,2024/05/12,,,read,,,,1,0
43708884,"The Boy, the Mole, the Fox and the Horse",Charlie Mackesy,"Mackesy, Charlie",,"=""1529105102""","=""9781529105100""",5,4.56,Ebury Press,Hardcover,128,2019,2019,2024/05/15,2024/05/13,,,read,,,,1,0
30119,Where the Sidewalk Ends,Shel Silverstein,"Silverstein, Shel",,"=""0060513039""","=""9780060513030""",3,4.34,Harpercollins Childrens Books,Hardcover,176,2002,1974,2024/01/01,2024/05/14,,,read,,,,1,0
25451264,"Death's End (Remembrance of Earth’s Past, #3)",Liu Cixin,"Cixin, Liu",Ken Liu,"=""0765377101""","=""9780765377104""",3,4.41,TOR,Hardcover,604,2016,2010,2024/01/01,2024/05/12,,,read,,,,1,0
23168817,"The Dark Forest (Remembrance of Earth’s Past, #2)",Liu Cixin,"Cixin, Liu",Joel Martinsen,"=""""","=""""",5,4.41,Tor Books,Hardcover,512,2015,2008,2024/01/01,2024/05/12,,,read,,,,1,0
40940205,Tribe: On Homecoming and Belonging,Sebastian Junger,"Junger, Sebastian",,"=""""","=""""",3,4.02,Twelve,Kindle Edition,182,2016,2016,2024/01/01,2024/05/12,,,read,,,,1,0
52036,Siddhartha,Hermann Hesse,"Hesse, Hermann","Hilda Rosner, Zigmantas Ardickas","=""""","=""""",5,4.08,Bantam Books,Mass Market Paperback,152,1981,1922,2024/01/01,2024/05/12,,,read,,,,1,0
